   Element Label             Int         S.Mises         S.Mises           S.S12           S.S12
                              Pt          @Loc 1          @Loc 2          @Loc 1          @Loc 2
-------------------------------------------------------------------------------------------------
               1               1     7.73373E-15     6.84854E-15     2.93823E-15     2.40107E-15
               2               1     7.57620E-15     8.59958E-15     3.31247E-15     3.55234E-15
               3               1     6.06272E-15     5.62818E-15    -1.39569E-15    -892.584E-18
               4               1     3.85832E-15     3.61561E-15     1.34280E-15     1.70822E-15
               5               1     7.45040E-15     5.79759E-15     1.60518E-15     1.44585E-15
               6               1     4.18118E-15     4.49276E-15     1.73651E-15     1.31452E-15
               7               1     7.71910E-15     8.45707E-15     572.831E-18     952.682E-18
               8               1     2.29794E-15     1.94883E-15     552.049E-18     973.464E-18
               9               1     8.46825E-15     7.93114E-15     907.077E-18     618.436E-18
              10               1     7.06179E-15     6.98394E-15     3.88421E-15     3.74335E-15
              11               1     573.008E-18     573.008E-18     144.320E-18    -144.320E-18
              12               1     6.34552E-15     5.90234E-15    -732.738E-18    -792.775E-18
              13               1     4.78441E-15     5.20166E-15     2.21438E-15     2.36216E-15
              14               1     5.10366E-15     4.67166E-15    -1.47818E-15    -1.57285E-15
              15               1     8.68573E-15     7.82858E-15     56.5736E-18    -56.5736E-18
              16               1     5.29111E-15     5.30308E-15     3.04756E-15     3.05449E-15
              17               1     2.73317E-15     1.29331E-15    -8.08194E-18     8.08194E-18
              18               1     2.63508E-15     2.51363E-15    -950.950E-18    -574.563E-18
              19               1     23.6189E-03     26.8933E-03     13.4234E-03     13.3451E-03
              20               1     24.4624E-03     23.1324E-03     13.6540E-03     13.3360E-03
              21               1     23.9700E-03     23.7040E-03     13.4635E-03     13.5073E-03
              22               1     27.0558E-03     26.3467E-03     13.5815E-03     13.4077E-03
              23               1     30.4271E-03     30.3798E-03     13.5288E-03     13.4070E-03
              24               1     33.7698E-03     38.9155E-03     13.2229E-03     13.5210E-03
              25               1     48.9428E-03     37.2145E-03     13.6165E-03     13.4008E-03
              26               1     38.8684E-03     50.9662E-03     13.2572E-03     12.9024E-03
              27               1     31.7711E-03     28.9315E-03     13.7622E-03     13.8819E-03
              28               1     36.4932E-03     35.8258E-03     13.9412E-03     13.4252E-03
              29               1     41.5783E-03     42.0840E-03     13.9835E-03     13.6176E-03
              30               1     48.5929E-03     47.4277E-03     13.9128E-03     13.4314E-03
              31               1     54.1551E-03     55.7254E-03     13.8255E-03     13.6214E-03
              32               1     62.3504E-03     61.4069E-03     13.7120E-03     13.6450E-03
              33               1     67.9215E-03     66.8926E-03     13.5970E-03     13.7773E-03
              34               1     69.4058E-03     81.3635E-03     13.0801E-03     13.9620E-03
              35               1     94.9413E-03     72.3733E-03     13.8751E-03     13.8791E-03
              36               1     71.6627E-03     91.2421E-03     13.3694E-03     12.6746E-03
              37               1     59.2083E-03     60.5792E-03     13.7271E-03     14.1659E-03
              38               1     76.3050E-03     66.7157E-03     14.1626E-03     13.4081E-03
              39               1     74.6975E-03     80.2609E-03     14.1813E-03     13.2380E-03
              40               1     85.3017E-03     83.5602E-03     14.2777E-03     13.4749E-03
              41               1     92.3369E-03     91.6120E-03     13.8964E-03     13.3385E-03
              42               1     97.6254E-03     100.600E-03     13.8684E-03     13.7176E-03
              43               1     107.290E-03     105.699E-03     13.7123E-03     13.9909E-03
              44               1     112.310E-03     110.652E-03     13.4682E-03     14.0579E-03
              45               1     111.105E-03     129.051E-03     12.9532E-03     14.4505E-03
              46               1     145.765E-03     112.489E-03     13.9584E-03     14.2064E-03
              47               1     108.983E-03     135.693E-03     13.4984E-03     12.4061E-03
              48               1     94.8749E-03     102.810E-03     13.7806E-03     14.5778E-03
              49               1     125.245E-03     105.375E-03     14.2103E-03     13.2212E-03
              50               1     115.274E-03     126.552E-03     14.4688E-03     12.9543E-03
              51               1     128.912E-03     126.404E-03     14.4671E-03     13.3385E-03
              52               1     136.646E-03     135.417E-03     13.9395E-03     13.1858E-03
              53               1     140.978E-03     145.464E-03     13.8684E-03     13.7176E-03
              54               1     151.837E-03     149.728E-03     13.6692E-03     14.1436E-03
              55               1     156.377E-03     153.956E-03     13.2788E-03     14.1944E-03
              56               1     152.378E-03     176.091E-03     12.6658E-03     14.7342E-03
              57               1     195.785E-03     152.139E-03     13.9106E-03     14.3932E-03
              58               1     145.916E-03     179.482E-03     13.4448E-03     11.9942E-03
              59               1     134.746E-03     149.896E-03     14.2542E-03     15.5587E-03
              60               1     178.811E-03     148.265E-03     13.8414E-03     13.0120E-03
              61               1     158.602E-03     179.544E-03     14.6665E-03     13.4392E-03
              62               1     178.543E-03     173.648E-03     13.8451E-03     13.4115E-03
              63               1     184.416E-03     180.749E-03     13.2652E-03     13.4032E-03
              64               1     177.140E-03     206.673E-03     12.0199E-03     13.5891E-03
              65               1     227.465E-03     177.004E-03     13.4290E-03     13.7248E-03
              66               1     169.229E-03     207.572E-03     12.4264E-03     10.6887E-03
              67               1     9.28407E-03     16.0946E-03     4.96739E-03     4.94642E-03
              68               1     9.98241E-03     9.04853E-03     5.04164E-03     5.03670E-03
              69               1     11.2271E-03     10.2577E-03     5.04553E-03     4.95084E-03
              70               1     18.7452E-03     17.4885E-03     5.00717E-03     5.02399E-03
              71               1     24.1224E-03     24.4463E-03     5.05695E-03     4.93974E-03
              72               1     30.5950E-03     37.2390E-03     5.09587E-03     5.27012E-03
              73               1     48.8903E-03     33.9730E-03     5.30810E-03     5.32674E-03
              74               1     36.6743E-03     52.0870E-03     4.96059E-03     4.69303E-03
              75               1     28.3726E-03     24.1909E-03     5.32913E-03     5.63376E-03
              76               1     36.2345E-03     34.9273E-03     5.03762E-03     5.14115E-03
              77               1     42.3915E-03     44.2961E-03     5.31882E-03     5.05266E-03
              78               1     52.2579E-03     50.8052E-03     5.21754E-03     5.45864E-03
              79               1     58.6425E-03     60.9243E-03     5.19792E-03     5.31789E-03
              80               1     69.4997E-03     67.4172E-03     5.63301E-03     5.65542E-03
              81               1     75.1750E-03     73.9264E-03     5.76419E-03     5.31375E-03
              82               1     78.4706E-03     91.9830E-03     5.71070E-03     6.04031E-03
              83               1     106.029E-03     79.1003E-03     6.20441E-03     6.06808E-03
              84               1     79.2497E-03     102.241E-03     5.40048E-03     4.73097E-03
              85               1     67.2634E-03     69.6731E-03     5.72000E-03     6.37495E-03
              86               1     88.6086E-03     76.3882E-03     4.46908E-03     4.83544E-03
              87               1     86.4360E-03     93.9222E-03     5.59318E-03     5.12950E-03
              88               1     98.3506E-03     97.2755E-03     4.79125E-03     5.50449E-03
              89               1     107.804E-03     105.624E-03     5.44880E-03     5.63358E-03
              90               1     112.297E-03     116.318E-03     5.50867E-03     5.58778E-03
              91               1     125.375E-03     121.478E-03     6.02185E-03     5.86364E-03
              92               1     129.490E-03     127.523E-03     6.43764E-03     5.48322E-03
              93               1     130.046E-03     150.199E-03     5.98537E-03     6.52433E-03
              94               1     167.152E-03     127.708E-03     7.04611E-03     6.70851E-03
              95               1     124.951E-03     156.006E-03     5.52346E-03     4.43286E-03
              96               1     111.699E-03     121.910E-03     5.76600E-03     6.82948E-03
              97               1     148.089E-03     123.689E-03     3.86595E-03     4.39707E-03
              98               1     136.657E-03     150.666E-03     5.50140E-03     4.80305E-03
              99               1     151.318E-03     149.529E-03     4.40593E-03     5.50947E-03
             100               1     162.027E-03     158.412E-03     5.31469E-03     5.57973E-03
             101               1     164.543E-03     170.448E-03     5.50867E-03     5.58778E-03
             102               1     179.632E-03     174.300E-03     6.15597E-03     5.91749E-03
             103               1     182.519E-03     179.837E-03     6.82296E-03     5.47825E-03
             104               1     180.375E-03     207.049E-03     6.07716E-03     6.85078E-03
             105               1     226.764E-03     175.146E-03     7.64924E-03     7.14688E-03
             106               1     169.574E-03     208.483E-03     5.47746E-03     3.97832E-03
             107               1     158.818E-03     177.314E-03     5.00140E-03     6.21336E-03
             108               1     211.742E-03     173.740E-03     3.70932E-03     3.58646E-03
             109               1     188.162E-03     214.277E-03     4.79382E-03     3.35447E-03
             110               1     212.029E-03     205.276E-03     4.75827E-03     5.44525E-03
             111               1     217.926E-03     212.950E-03     5.30586E-03     4.51849E-03
             112               1     210.511E-03     244.973E-03     5.34757E-03     6.86650E-03
             113               1     264.634E-03     204.892E-03     6.64042E-03     6.77697E-03
             114               1     197.662E-03     241.732E-03     4.92657E-03     3.42608E-03
             115               1     6.81999E-03     13.4157E-03    -3.76937E-03    -3.65008E-03
             116               1     7.76318E-03     7.85445E-03    -4.07204E-03    -3.99133E-03
             117               1     11.6674E-03     10.3618E-03    -4.02496E-03    -3.76206E-03
             118               1     19.7743E-03     18.2308E-03    -4.05603E-03    -3.63285E-03
             119               1     25.9341E-03     25.5199E-03    -3.90625E-03    -3.61783E-03
             120               1     31.9424E-03     38.6795E-03    -3.76330E-03    -3.84597E-03
             121               1     52.6226E-03     36.2005E-03    -3.24703E-03    -3.78474E-03
             122               1     38.3535E-03     55.1388E-03    -3.32239E-03    -3.71742E-03
             123               1     33.4841E-03     29.9130E-03    -3.69498E-03    -2.98504E-03
             124               1     44.0228E-03     41.2609E-03    -4.37442E-03    -3.49357E-03
             125               1     48.6011E-03     50.8783E-03    -3.83968E-03    -3.06001E-03
             126               1     58.2774E-03     56.5583E-03    -3.89952E-03    -3.01732E-03
             127               1     65.0298E-03     66.3396E-03    -3.44657E-03    -2.94222E-03
             128               1     75.2469E-03     73.2702E-03    -3.39095E-03    -3.31880E-03
             129               1     82.3726E-03     80.0119E-03    -3.02214E-03    -3.24825E-03
             130               1     85.1330E-03     99.3934E-03    -2.83582E-03    -3.64174E-03
             131               1     117.654E-03     87.8462E-03    -1.71109E-03    -3.22181E-03
             132               1     86.3199E-03     112.313E-03    -2.30100E-03    -3.42488E-03
             133               1     78.3988E-03     83.6316E-03    -4.14060E-03    -2.55493E-03
             134               1     104.867E-03     89.0697E-03    -4.60413E-03    -3.02662E-03
             135               1     98.2375E-03     107.769E-03    -4.33583E-03    -2.63218E-03
             136               1     110.801E-03     107.914E-03    -3.53725E-03    -2.14975E-03
             137               1     118.524E-03     116.803E-03    -3.69419E-03    -2.76229E-03
             138               1     124.087E-03     127.091E-03    -3.03083E-03    -2.70842E-03
             139               1     136.231E-03     132.870E-03    -2.88702E-03    -3.23565E-03
             140               1     143.066E-03     139.415E-03    -2.54123E-03    -3.40249E-03
             141               1     142.717E-03     164.621E-03    -2.00529E-03    -3.69091E-03
             142               1     187.696E-03     143.526E-03    -578.138E-06    -3.04844E-03
             143               1     138.086E-03     173.960E-03    -1.42231E-03    -3.39709E-03
             144               1     128.914E-03     143.773E-03    -4.77680E-03    -2.35783E-03
             145               1     173.227E-03     143.378E-03    -5.54638E-03    -3.02151E-03
             146               1     154.491E-03     171.422E-03    -4.88127E-03    -2.38439E-03
             147               1     170.115E-03     165.720E-03    -3.77036E-03    -1.85655E-03
             148               1     178.040E-03     175.148E-03    -3.88311E-03    -2.65150E-03
             149               1     182.082E-03     186.513E-03    -3.03084E-03    -2.70842E-03
             150               1     195.756E-03     191.221E-03    -2.69811E-03    -3.34643E-03
             151               1     202.396E-03     197.234E-03    -2.30812E-03    -3.69569E-03
             152               1     199.001E-03     228.298E-03    -1.45984E-03    -3.93870E-03
             153               1     256.092E-03     197.869E-03     364.116E-06    -3.05355E-03
             154               1     188.649E-03     234.157E-03    -786.112E-06    -3.59420E-03
             155               1     180.404E-03     204.090E-03    -6.00427E-03    -3.31333E-03
             156               1     243.561E-03     198.825E-03    -8.19708E-03    -5.02427E-03
             157               1     211.883E-03     238.760E-03    -5.33325E-03    -3.34251E-03
             158               1     235.939E-03     225.952E-03    -4.80495E-03    -3.70795E-03
             159               1     242.414E-03     233.586E-03    -3.15732E-03    -3.54273E-03
             160               1     233.710E-03     268.854E-03    -2.45501E-03    -4.26552E-03
             161               1     298.529E-03     230.798E-03     878.012E-06    -2.75179E-03
             162               1     219.579E-03     270.400E-03    -1.08750E-03    -4.05417E-03
             163               1     22.3161E-03     23.5337E-03    -12.8658E-03    -12.4928E-03
             164               1     22.5491E-03     22.2282E-03    -12.9974E-03    -12.3901E-03
             165               1     24.3664E-03     23.3812E-03    -12.7924E-03    -12.2801E-03
             166               1     29.5375E-03     27.7682E-03    -12.5714E-03    -12.3148E-03
             167               1     33.5302E-03     33.9553E-03    -12.7213E-03    -12.7034E-03
             168               1     39.1945E-03     44.9935E-03    -12.9883E-03    -12.4147E-03
             169               1     57.6368E-03     41.6381E-03    -12.8131E-03    -13.1554E-03
             170               1     45.1818E-03     62.2936E-03    -12.7324E-03    -13.6868E-03
             171               1     43.4337E-03     42.3557E-03    -12.0255E-03    -10.4324E-03
             172               1     55.1039E-03     48.8496E-03    -12.5021E-03    -10.9581E-03
             173               1     55.6397E-03     59.4004E-03    -11.6800E-03    -11.1916E-03
             174               1     64.4183E-03     62.5023E-03    -11.6706E-03    -11.2359E-03
             175               1     70.4887E-03     73.4520E-03    -12.3619E-03    -11.9800E-03
             176               1     81.1001E-03     79.2243E-03    -12.0045E-03    -11.7907E-03
             177               1     86.9629E-03     86.2670E-03    -12.6403E-03    -12.8433E-03
             178               1     91.0691E-03     106.555E-03    -13.0866E-03    -12.3036E-03
             179               1     124.906E-03     91.6585E-03    -12.2396E-03    -13.7421E-03
             180               1     93.9913E-03     124.615E-03    -12.3055E-03    -14.8268E-03
             181               1     89.5856E-03     100.495E-03    -11.1352E-03    -8.21427E-03
             182               1     119.367E-03     97.5585E-03    -12.4537E-03    -9.45603E-03
             183               1     106.056E-03     118.227E-03    -10.0426E-03    -10.2268E-03
             184               1     117.650E-03     116.843E-03    -11.4565E-03    -10.2588E-03
             185               1     126.332E-03     124.569E-03    -11.1283E-03    -11.0649E-03
             186               1     129.155E-03     136.818E-03    -12.1272E-03    -11.7486E-03
             187               1     144.392E-03     140.670E-03    -12.1602E-03    -11.7185E-03
             188               1     148.539E-03     148.034E-03    -12.6667E-03    -13.3185E-03
             189               1     150.736E-03     175.361E-03    -13.8030E-03    -12.6080E-03
             190               1     199.727E-03     148.854E-03    -11.8462E-03    -14.7540E-03
             191               1     149.313E-03     193.584E-03    -12.3677E-03    -16.5420E-03
             192               1     143.773E-03     167.909E-03    -10.8468E-03    -6.26523E-03
             193               1     192.608E-03     153.656E-03    -12.5959E-03    -8.21606E-03
             194               1     164.700E-03     185.726E-03    -9.16250E-03    -9.66950E-03
             195               1     178.536E-03     177.503E-03    -11.1733E-03    -9.54271E-03
             196               1     188.451E-03     185.436E-03    -10.8868E-03    -10.9119E-03
             197               1     188.261E-03     199.666E-03    -12.1272E-03    -11.7486E-03
             198               1     206.620E-03     201.634E-03    -12.4017E-03    -11.8715E-03
             199               1     209.633E-03     208.894E-03    -12.9500E-03    -14.0346E-03
             200               1     209.691E-03     243.146E-03    -14.6831E-03    -13.1653E-03
             201               1     273.391E-03     205.344E-03    -11.7040E-03    -15.9940E-03
             202               1     204.006E-03     261.502E-03    -12.6562E-03    -18.4910E-03
             203               1     198.384E-03     234.892E-03    -13.5327E-03    -6.52276E-03
             204               1     266.276E-03     207.266E-03    -13.9188E-03    -8.56351E-03
             205               1     222.149E-03     256.400E-03    -11.8127E-03    -11.6073E-03
             206               1     246.659E-03     236.396E-03    -11.8217E-03    -10.3718E-03
             207               1     252.211E-03     245.120E-03    -13.4710E-03    -14.6464E-03
             208               1     244.372E-03     286.349E-03    -13.9680E-03    -13.0875E-03
             209               1     319.142E-03     237.897E-03    -11.8917E-03    -16.9820E-03
             210               1     237.347E-03     302.931E-03    -12.0655E-03    -19.6567E-03
             211               1     35.5966E-03     34.9960E-03    -20.5168E-03    -19.9150E-03
             212               1     35.8625E-03     35.1954E-03    -20.6981E-03    -20.1096E-03
             213               1     37.0001E-03     38.2046E-03    -20.5102E-03    -21.3355E-03
             214               1     41.5344E-03     41.6964E-03    -21.2295E-03    -21.3504E-03
             215               1     45.0645E-03     45.0261E-03    -21.1538E-03    -21.4033E-03
             216               1     48.5443E-03     56.2672E-03    -21.6240E-03    -22.4890E-03
             217               1     66.8061E-03     53.3535E-03    -22.6924E-03    -21.7934E-03
             218               1     56.4613E-03     68.2255E-03    -23.6418E-03    -22.5264E-03
             219               1     49.5690E-03     52.3413E-03    -16.6681E-03    -16.4815E-03
             220               1     61.5837E-03     55.8748E-03    -17.5953E-03    -17.5767E-03
             221               1     60.5766E-03     67.3442E-03    -18.6320E-03    -19.2379E-03
             222               1     71.4952E-03     70.7187E-03    -19.6980E-03    -19.7967E-03
             223               1     75.6255E-03     80.2550E-03    -19.6044E-03    -20.5072E-03
             224               1     86.3215E-03     87.5407E-03    -21.4862E-03    -21.2029E-03
             225               1     93.2712E-03     91.5350E-03    -21.1429E-03    -21.2183E-03
             226               1     93.7130E-03     113.829E-03    -22.6937E-03    -23.5558E-03
             227               1     132.295E-03     101.923E-03    -25.1106E-03    -23.5431E-03
             228               1     102.536E-03     129.318E-03    -27.2777E-03    -25.4052E-03
             229               1     93.0283E-03     109.327E-03    -12.2508E-03    -12.6394E-03
             230               1     124.099E-03     103.750E-03    -14.0369E-03    -14.8750E-03
             231               1     108.129E-03     124.854E-03    -16.8219E-03    -16.9307E-03
             232               1     122.180E-03     123.113E-03    -17.8485E-03    -18.8398E-03
             233               1     130.777E-03     132.338E-03    -19.0382E-03    -19.3144E-03
             234               1     133.132E-03     142.266E-03    -19.5959E-03    -20.2379E-03
             235               1     147.519E-03     148.746E-03    -21.8743E-03    -21.4864E-03
             236               1     154.059E-03     152.236E-03    -21.9118E-03    -21.4801E-03
             237               1     150.210E-03     182.440E-03    -24.1520E-03    -25.2240E-03
             238               1     207.699E-03     160.415E-03    -28.2284E-03    -25.8601E-03
             239               1     157.458E-03     199.311E-03    -31.5962E-03    -28.9681E-03
             240               1     146.925E-03     177.964E-03    -7.72316E-03    -8.81778E-03
             241               1     198.288E-03     161.471E-03    -10.7154E-03    -12.3040E-03
             242               1     164.354E-03     192.976E-03    -15.1064E-03    -14.9898E-03
             243               1     183.166E-03     183.770E-03    -16.8975E-03    -18.2218E-03
             244               1     192.190E-03     194.459E-03    -18.3745E-03    -18.8060E-03
             245               1     192.014E-03     205.432E-03    -19.5959E-03    -20.2379E-03
             246               1     209.230E-03     211.153E-03    -22.5381E-03    -21.9947E-03
             247               1     215.587E-03     213.411E-03    -22.8628E-03    -22.0980E-03
             248               1     207.298E-03     251.433E-03    -25.8675E-03    -27.1650E-03
             249               1     282.914E-03     219.200E-03    -31.5499E-03    -28.4311E-03
             250               1     212.791E-03     269.154E-03    -36.1238E-03    -32.7897E-03
             251               1     200.868E-03     247.031E-03    -4.89130E-03    -6.85821E-03
             252               1     273.786E-03     218.418E-03    -10.7266E-03    -11.6907E-03
             253               1     216.918E-03     262.540E-03    -14.9412E-03    -15.5682E-03
             254               1     249.562E-03     245.237E-03    -21.6082E-03    -21.0858E-03
             255               1     256.211E-03     251.630E-03    -20.7751E-03    -21.6679E-03
             256               1     240.658E-03     296.138E-03    -27.1930E-03    -28.2563E-03
             257               1     331.519E-03     255.720E-03    -32.6640E-03    -30.2123E-03
             258               1     247.945E-03     314.252E-03    -39.2673E-03    -35.5833E-03
             259               1     46.5570E-03     47.2772E-03    -26.7984E-03    -26.8981E-03
             260               1     50.9303E-03     51.0802E-03    -29.3877E-03    -29.3921E-03
             261               1     51.0005E-03     51.5995E-03    -28.6470E-03    -29.2066E-03
             262               1     53.9648E-03     54.7404E-03    -29.4494E-03    -29.6762E-03
             263               1     59.1985E-03     56.8885E-03    -30.3745E-03    -29.6979E-03
             264               1     59.1435E-03     64.6271E-03    -29.2700E-03    -30.8088E-03
             265               1     76.7176E-03     67.9992E-03    -34.3474E-03    -33.1887E-03
             266               1     74.5043E-03     79.0847E-03    -34.1739E-03    -32.0525E-03
             267               1     50.2586E-03     53.8595E-03    -18.7157E-03    -20.8951E-03
             268               1     64.2304E-03     61.6476E-03    -23.4739E-03    -24.6536E-03
             269               1     70.7637E-03     72.6691E-03    -26.8184E-03    -26.5206E-03
             270               1     77.8716E-03     77.6961E-03    -27.0886E-03    -27.8923E-03
             271               1     84.6668E-03     84.4766E-03    -27.9809E-03    -27.9784E-03
             272               1     90.2904E-03     91.8868E-03    -28.7105E-03    -29.4000E-03
             273               1     100.925E-03     94.8029E-03    -31.0876E-03    -29.5546E-03
             274               1     99.1946E-03     111.690E-03    -29.5336E-03    -32.3498E-03
             275               1     131.562E-03     109.715E-03    -40.1714E-03    -37.5309E-03
             276               1     123.845E-03     135.163E-03    -43.0395E-03    -38.0596E-03
             277               1     92.3967E-03     103.337E-03    -9.00484E-03    -13.8889E-03
             278               1     115.612E-03     101.191E-03    -16.7815E-03    -19.2916E-03
             279               1     114.736E-03     122.252E-03    -25.1818E-03    -23.6859E-03
             280               1     126.954E-03     123.831E-03    -24.8032E-03    -26.5887E-03
             281               1     132.839E-03     133.828E-03    -26.8635E-03    -26.7097E-03
             282               1     140.755E-03     139.688E-03    -27.6986E-03    -27.9469E-03
             283               1     146.530E-03     148.736E-03    -28.7102E-03    -29.6948E-03
             284               1     159.104E-03     149.469E-03    -32.5837E-03    -30.0181E-03
             285               1     153.653E-03     172.992E-03    -30.3986E-03    -34.6320E-03
             286               1     198.221E-03     162.989E-03    -46.9762E-03    -42.7054E-03
             287               1     182.538E-03     201.276E-03    -53.2048E-03    -45.1397E-03
             288               1     149.269E-03     167.812E-03     1.33985E-03    -6.57491E-03
             289               1     181.168E-03     153.732E-03    -9.71464E-03    -13.8117E-03
             290               1     169.882E-03     183.764E-03    -23.9608E-03    -21.1241E-03
             291               1     186.536E-03     180.267E-03    -22.9823E-03    -25.7861E-03
             292               1     191.359E-03     192.963E-03    -26.4313E-03    -26.0111E-03
             293               1     200.102E-03     198.364E-03    -27.6986E-03    -27.9469E-03
             294               1     205.508E-03     208.372E-03    -29.1424E-03    -30.3935E-03
             295               1     219.767E-03     206.840E-03    -34.4046E-03    -30.8208E-03
             296               1     210.224E-03     236.140E-03    -31.6196E-03    -37.1939E-03
             297               1     266.238E-03     218.177E-03    -54.0431E-03    -48.1852E-03
             298               1     242.208E-03     268.252E-03    -63.5494E-03    -52.4537E-03
             299               1     207.327E-03     233.546E-03     10.0788E-03    -1.12578E-03
             300               1     247.355E-03     207.468E-03    -4.58957E-03    -10.4092E-03
             301               1     226.808E-03     245.579E-03    -25.5319E-03    -21.1960E-03
             302               1     245.207E-03     239.979E-03    -24.8236E-03    -29.5680E-03
             303               1     258.149E-03     245.413E-03    -35.0003E-03    -29.8061E-03
             304               1     247.604E-03     277.425E-03    -32.3851E-03    -38.8193E-03
             305               1     312.079E-03     255.352E-03    -59.1456E-03    -52.1716E-03
             306               1     283.198E-03     314.254E-03    -71.0511E-03    -57.8249E-03
             307               1     182.889E-03     175.157E-03     17.5696E-03     18.0969E-03
             308               1     177.428E-03     189.476E-03     6.97890E-03     6.17626E-03
             309               1     171.461E-03     195.303E-03     13.2756E-03     15.6672E-03
             310               1     229.351E-03     182.361E-03     12.4200E-03     12.8009E-03
             311               1     186.953E-03     240.223E-03     12.6884E-03     12.9785E-03
             312               1     253.523E-03     191.292E-03     13.9052E-03     12.9638E-03
             313               1     187.832E-03     231.685E-03     12.3377E-03     9.61907E-03
             314               1     216.151E-03     206.239E-03     9.34791E-03     8.92362E-03
             315               1     212.130E-03     223.692E-03    -1.95157E-03    -1.58784E-03
             316               1     203.377E-03     231.130E-03     6.15467E-03     7.04987E-03
             317               1     270.392E-03     214.854E-03     4.02590E-03     2.51933E-03
             318               1     224.083E-03     289.128E-03     4.58704E-03     4.42837E-03
             319               1     296.111E-03     224.691E-03     4.54301E-03     6.08494E-03
             320               1     221.083E-03     271.304E-03     2.52505E-03     1.58838E-03
             321               1     240.552E-03     233.421E-03    -2.51101E-03    -1.75502E-03
             322               1     237.155E-03     251.478E-03    -7.48097E-03    -8.15520E-03
             323               1     226.813E-03     258.523E-03    -6.59324E-03    -4.81482E-03
             324               1     307.821E-03     243.226E-03    -7.58406E-03    -5.80222E-03
             325               1     253.549E-03     320.519E-03    -4.84744E-03    -4.65345E-03
             326               1     333.998E-03     253.014E-03    -1.13450E-03    -2.96339E-03
             327               1     244.332E-03     298.793E-03    -2.27424E-03    -4.05881E-03
             328               1     258.110E-03     249.236E-03    -11.6353E-03    -11.7618E-03
             329               1     256.296E-03     266.936E-03    -15.8896E-03    -15.3884E-03
             330               1     245.784E-03     290.223E-03    -14.9735E-03    -6.86986E-03
             331               1     330.911E-03     250.026E-03    -17.2287E-03    -11.5116E-03
             332               1     266.494E-03     340.288E-03    -13.0235E-03    -12.4357E-03
             333               1     354.675E-03     257.403E-03    -9.93763E-03    -14.9980E-03
             334               1     262.321E-03     331.339E-03    -10.9897E-03    -19.6220E-03
             335               1     264.241E-03     260.033E-03    -19.9941E-03    -20.2201E-03
             336               1     259.247E-03     271.626E-03    -20.4688E-03    -19.8873E-03
             337               1     247.248E-03     305.006E-03    -8.32262E-03    -9.10196E-03
             338               1     339.409E-03     255.976E-03    -11.1426E-03    -13.2667E-03
             339               1     251.093E-03     350.364E-03    -21.7450E-03    -22.6545E-03
             340               1     368.690E-03     271.685E-03    -31.0596E-03    -28.7384E-03
             341               1     271.220E-03     345.773E-03    -36.3931E-03    -34.1425E-03
             342               1     258.469E-03     252.604E-03    -36.1497E-03    -33.7602E-03
             343               1     259.595E-03     268.409E-03    -23.2985E-03    -25.1475E-03
             344               1     254.951E-03     289.702E-03     13.9481E-03    -425.970E-06
             345               1     308.398E-03     246.525E-03    -8.60211E-03    -11.4529E-03
             346               1     263.037E-03     317.462E-03    -29.2762E-03    -30.6103E-03
             347               1     345.076E-03     274.497E-03    -56.3153E-03    -51.9863E-03
             348               1     311.317E-03     347.969E-03    -73.6229E-03    -58.2655E-03
             349               1     191.138E-03     237.199E-03    -16.6307E-03    -14.1105E-03
             350               1     256.930E-03     199.855E-03    -17.8717E-03    -17.3136E-03
             351               1     198.469E-03     225.255E-03    -16.3943E-03    -17.6054E-03
             352               1     192.250E-03     208.578E-03    -18.3236E-03    -17.3759E-03
             353               1     214.784E-03     179.865E-03    -17.4858E-03    -17.3235E-03
             354               1     161.433E-03     179.911E-03    -18.0204E-03    -20.0699E-03
             355               1     168.418E-03     169.667E-03    -10.6997E-03    -10.7433E-03
             356               1     222.643E-03     275.638E-03    -5.34034E-03    -4.21712E-03
             357               1     299.088E-03     231.702E-03    -6.80994E-03    -7.60361E-03
             358               1     235.835E-03     268.158E-03    -5.38048E-03    -7.76606E-03
             359               1     227.140E-03     248.382E-03    -6.97544E-03    -4.31531E-03
             360               1     254.325E-03     210.312E-03    -5.53273E-03    -4.89816E-03
             361               1     189.419E-03     211.830E-03    -6.55551E-03    -7.52622E-03
             362               1     199.526E-03     201.269E-03    -2.96760E-03    -3.01124E-03
             363               1     246.123E-03     304.741E-03     2.93051E-03     5.52687E-03
             364               1     336.111E-03     259.820E-03     1.50673E-03     4.21841E-03
             365               1     264.430E-03     295.032E-03     5.32861E-03     5.60779E-03
             366               1     256.144E-03     276.747E-03     6.52980E-03     5.58660E-03
             367               1     289.710E-03     237.997E-03     9.62571E-03     7.27871E-03
             368               1     213.498E-03     240.283E-03     7.82405E-03     5.34210E-03
             369               1     223.956E-03     226.067E-03     4.77319E-03     4.72955E-03
             370               1     264.457E-03     339.288E-03     14.8768E-03     23.7767E-03
             371               1     358.986E-03     266.403E-03     15.4016E-03     21.3240E-03
             372               1     276.488E-03     311.262E-03     18.1408E-03     15.6140E-03
             373               1     267.695E-03     293.589E-03     16.7729E-03     18.1675E-03
             374               1     316.142E-03     246.552E-03     19.7973E-03     13.2358E-03
             375               1     232.873E-03     273.569E-03     20.1565E-03     11.8999E-03
             376               1     239.667E-03     241.998E-03     11.9952E-03     11.9516E-03
             377               1     278.447E-03     353.744E-03     47.7060E-03     43.5200E-03
             378               1     371.403E-03     288.602E-03     37.5007E-03     36.1041E-03
             379               1     274.258E-03     321.660E-03     32.5134E-03     34.7061E-03
             380               1     265.383E-03     298.402E-03     24.0676E-03     23.9125E-03
             381               1     321.526E-03     260.967E-03     20.7680E-03     20.6045E-03
             382               1     234.546E-03     287.164E-03     10.6599E-03     13.2042E-03
             383               1     245.362E-03     247.748E-03     18.2063E-03     18.1626E-03
             384               1     323.839E-03     358.820E-03     84.9483E-03     70.1596E-03
             385               1     353.270E-03     290.298E-03     71.6038E-03     62.5983E-03
             386               1     279.062E-03     304.429E-03     36.5104E-03     47.4564E-03
             387               1     276.950E-03     282.638E-03     43.4028E-03     33.7308E-03
             388               1     288.219E-03     246.280E-03     13.3010E-03     21.1760E-03
             389               1     240.935E-03     271.138E-03    -4.79994E-03     8.19173E-03
             390               1     240.495E-03     242.772E-03     22.9831E-03     22.9395E-03
             391               1     1.80723E-15     2.36803E-15     535.163E-18     990.350E-18
             392               1     2.32685E-15     4.16044E-15    -605.447E-18    -920.066E-18
             393               1     792.731E-18     1.41108E-15     368.534E-18     394.223E-18
             394               1     2.23303E-15     2.52941E-15    -759.149E-18    -766.365E-18
             395               1     1.86199E-15     2.73942E-15     387.440E-18     375.317E-18
             396               1     4.70215E-15     4.34806E-15    -2.38092E-15    -2.19562E-15
             397               1     5.53989E-15     5.11881E-15     282.188E-18     99.1900E-18
             398               1     2.24475E-15     2.47517E-15    -906.006E-18    -1.38226E-15
             399               1     4.03429E-15     3.90656E-15     2.01532E-15     2.17984E-15
             400               1     3.09178E-15     2.96633E-15    -1.30866E-15    -979.610E-18
             401               1     2.60354E-15     3.10676E-15    -1.37022E-15    -1.68080E-15
             402               1     1.97382E-15     2.39276E-15     398.697E-18     364.060E-18
             403               1     730.414E-18     260.769E-18    -76.4898E-18     76.4898E-18
             404               1     5.87334E-15     5.31424E-15     503.660E-18     640.475E-18
             405               1     2.24956E-15     1.18563E-15     921.509E-18     604.004E-18
             406               1     3.38497E-15     3.21308E-15     619.013E-18     906.500E-18
             407               1     1.84625E-15     1.56086E-15     757.561E-18     767.952E-18
             408               1     2.08023E-15     2.28975E-15    -210.131E-18     210.131E-18
             409               1     3.34942E-15     3.39722E-15    -640.950E-18    -884.563E-18
             410               1     1.73176E-15     1.35879E-15    -307.486E-18    -455.270E-18
             411               1     6.56007E-15     5.65213E-15     235.326E-18     527.431E-18
             412               1     3.86162E-15     3.19296E-15    -2.14877E-15    -1.66501E-15
             413               1     2.53896E-15     2.19708E-15     1.39756E-15     890.708E-18
             414               1     5.75437E-15     5.23859E-15     1.01136E-15     1.27691E-15
             415               1     5.34396E-15     5.49087E-15    -980.187E-18    -1.30808E-15
             416               1     3.93736E-15     3.38801E-15    -1.16492E-15    -1.12335E-15
             417               1     1.23393E-15     1.46524E-15     355.401E-18     407.356E-18
             418               1     4.61401E-15     3.80265E-15    -672.123E-18    -853.390E-18
             419               1     1.51032E-15     916.126E-18    -13.2775E-18     13.2775E-18
             420               1     1.96698E-15     3.18959E-15    -781.807E-18    -743.706E-18
             421               1     1.29932E-15     533.550E-18     472.589E-18     290.168E-18
             422               1     1.06512E-15     1.43233E-15    -234.171E-18    -528.585E-18
             423               1     2.80162E-15     2.02136E-15     818.176E-18     707.338E-18
             424               1     1.71852E-15     1.71030E-15    -770.261E-18    -755.252E-18
             425               1     1.39288E-15     1.31297E-15     785.848E-18     739.665E-18
             426               1     612.970E-18     975.186E-18    -223.203E-18    -539.553E-18
             427               1     1.13324E-15     958.842E-18    -75.0466E-18     75.0466E-18
             428               1     1.93860E-15     2.21581E-15    -147.784E-18     147.784E-18
             429               1     1.39406E-15     1.22183E-15    -477.207E-18    -285.550E-18
             430               1     917.310E-18     1.28061E-15    -143.166E-18     143.166E-18
             431               1     2.16552E-15     2.29206E-15    -1.12566E-15    -1.16261E-15
             432               1     2.15464E-15     2.29057E-15     1.12913E-15     1.15914E-15
             433               1     166.567E-03     207.114E-03    -17.3757E-03    -15.7575E-03
             434               1     224.243E-03     173.331E-03    -18.3476E-03    -18.7292E-03
             435               1     173.373E-03     200.093E-03    -16.5862E-03    -18.7743E-03
             436               1     175.907E-03     173.663E-03    -17.7496E-03    -18.5495E-03
             437               1     168.976E-03     168.279E-03    -18.0882E-03    -18.0996E-03
             438               1     157.464E-03     160.403E-03    -18.4506E-03    -18.0809E-03
             439               1     148.761E-03     145.984E-03    -18.7357E-03    -17.5531E-03
             440               1     133.353E-03     144.737E-03    -19.3251E-03    -17.8085E-03
             441               1     141.117E-03     120.727E-03    -18.5558E-03    -17.4741E-03
             442               1     107.968E-03     114.985E-03    -18.6067E-03    -19.4770E-03
             443               1     123.173E-03     155.396E-03    -17.5809E-03    -16.3774E-03
             444               1     165.183E-03     126.551E-03    -18.3823E-03    -18.5200E-03
             445               1     124.521E-03     144.599E-03    -17.0427E-03    -18.6133E-03
             446               1     124.080E-03     122.631E-03    -17.9139E-03    -18.3834E-03
             447               1     116.976E-03     115.880E-03    -18.1486E-03    -18.0965E-03
             448               1     105.727E-03     108.177E-03    -18.3902E-03    -18.0840E-03
             449               1     97.5722E-03     95.6033E-03    -18.5714E-03    -17.7191E-03
             450               1     85.5685E-03     90.4620E-03    -18.8686E-03    -17.9695E-03
             451               1     83.8947E-03     75.5169E-03    -18.5211E-03    -17.6833E-03
             452               1     66.6832E-03     66.0674E-03    -18.4015E-03    -18.8571E-03
             453               1     82.3461E-03     105.992E-03    -17.9856E-03    -17.1526E-03
             454               1     108.818E-03     82.6338E-03    -18.5943E-03    -18.5004E-03
             455               1     78.8290E-03     92.0422E-03    -17.6763E-03    -18.6753E-03
             456               1     75.6920E-03     75.1250E-03    -18.1744E-03    -18.4120E-03
             457               1     69.0084E-03     67.6620E-03    -18.2669E-03    -18.2949E-03
             458               1     59.2842E-03     60.4990E-03    -18.4067E-03    -18.2097E-03
             459               1     51.8516E-03     51.7065E-03    -18.3685E-03    -17.9652E-03
             460               1     45.5217E-03     44.4439E-03    -18.6269E-03    -18.1242E-03
             461               1     38.7777E-03     37.7979E-03    -18.3335E-03    -18.0581E-03
             462               1     33.9928E-03     34.6578E-03    -18.7151E-03    -18.1148E-03
             463               1     32.5064E-03     31.6015E-03    -18.1262E-03    -18.1095E-03
             464               1     32.9204E-03     41.9621E-03    -16.8418E-03    -16.5206E-03
             465               1     37.5297E-03     30.3701E-03    -17.0549E-03    -16.8529E-03
             466               1     29.4355E-03     31.5602E-03    -16.8797E-03    -16.8377E-03
             467               1     29.3289E-03     30.8498E-03    -16.8717E-03    -16.7971E-03
             468               1     192.570E-03     239.446E-03    -7.16470E-03    -5.46239E-03
             469               1     258.473E-03     198.126E-03    -9.16553E-03    -8.77484E-03
             470               1     204.404E-03     234.776E-03    -7.86162E-03    -8.86567E-03
             471               1     204.825E-03     201.941E-03    -8.03980E-03    -6.92424E-03
             472               1     198.676E-03     195.758E-03    -7.82053E-03    -7.75104E-03
             473               1     184.353E-03     187.325E-03    -6.47853E-03    -6.73119E-03
             474               1     174.749E-03     171.166E-03    -6.45304E-03    -7.30191E-03
             475               1     156.387E-03     171.899E-03    -6.71027E-03    -5.79072E-03
             476               1     166.184E-03     139.888E-03    -5.66872E-03    -6.00970E-03
             477               1     125.446E-03     135.092E-03    -6.99837E-03    -8.22227E-03
             478               1     139.884E-03     177.312E-03    -7.13698E-03    -5.92237E-03
             479               1     187.931E-03     142.109E-03    -8.58273E-03    -8.31398E-03
             480               1     144.583E-03     167.254E-03    -7.66972E-03    -8.35318E-03
             481               1     141.869E-03     140.062E-03    -7.77534E-03    -6.98719E-03
             482               1     135.152E-03     132.242E-03    -7.59686E-03    -7.58107E-03
             483               1     120.866E-03     123.832E-03    -6.70219E-03    -6.90117E-03
             484               1     111.876E-03     109.374E-03    -6.71750E-03    -7.23896E-03
             485               1     96.7196E-03     104.532E-03    -6.90216E-03    -6.30321E-03
             486               1     95.8688E-03     84.0926E-03    -6.25152E-03    -6.47056E-03
             487               1     73.0513E-03     73.3682E-03    -7.02609E-03    -7.76229E-03
             488               1     88.9289E-03     117.077E-03    -7.35968E-03    -6.61287E-03
             489               1     119.562E-03     87.9552E-03    -8.27636E-03    -8.10053E-03
             490               1     86.8306E-03     101.901E-03    -7.74811E-03    -8.07930E-03
             491               1     81.1263E-03     80.2461E-03    -7.83794E-03    -7.26037E-03
             492               1     74.0826E-03     71.2454E-03    -7.72752E-03    -7.65312E-03
             493               1     60.4389E-03     62.5520E-03    -7.26850E-03    -7.37908E-03
             494               1     51.4132E-03     51.0878E-03    -7.41474E-03    -7.52461E-03
             495               1     41.4853E-03     41.1744E-03    -6.98356E-03    -7.24872E-03
             496               1     31.1300E-03     30.1979E-03    -7.54521E-03    -7.31088E-03
             497               1     20.0083E-03     23.6532E-03    -6.91375E-03    -7.12010E-03
             498               1     18.1177E-03     13.7249E-03    -7.47600E-03    -7.64799E-03
             499               1     19.8551E-03     35.4188E-03    -5.20639E-03    -5.06574E-03
             500               1     27.1322E-03     13.6213E-03    -5.62806E-03    -5.59675E-03
             501               1     10.4615E-03     17.7962E-03    -5.50810E-03    -5.60135E-03
             502               1     9.93554E-03     13.6734E-03    -5.37068E-03    -5.28828E-03
             503               1     213.420E-03     267.748E-03     1.92559E-03     4.94257E-03
             504               1     291.193E-03     223.636E-03     53.7966E-06     4.06209E-03
             505               1     225.289E-03     257.377E-03     2.92098E-03     5.32547E-03
             506               1     226.559E-03     221.166E-03     3.30056E-03     4.53062E-03
             507               1     217.664E-03     214.173E-03     4.51864E-03     4.79093E-03
             508               1     204.307E-03     205.200E-03     4.68071E-03     3.64302E-03
             509               1     195.143E-03     190.260E-03     6.00551E-03     3.90830E-03
             510               1     177.082E-03     193.877E-03     6.05809E-03     3.70934E-03
             511               1     194.497E-03     162.836E-03     8.14895E-03     4.96718E-03
             512               1     144.625E-03     159.147E-03     6.17202E-03     3.68806E-03
             513               1     153.861E-03     196.691E-03     2.63333E-03     4.73348E-03
             514               1     210.348E-03     159.343E-03     1.40299E-03     4.21294E-03
             515               1     158.350E-03     182.259E-03     3.44383E-03     5.05612E-03
             516               1     156.399E-03     152.693E-03     3.75138E-03     4.42690E-03
             517               1     147.455E-03     144.382E-03     4.54565E-03     4.59962E-03
             518               1     134.111E-03     135.416E-03     4.65370E-03     3.83434E-03
             519               1     125.014E-03     121.811E-03     5.55468E-03     4.01202E-03
             520               1     110.198E-03     118.807E-03     5.53523E-03     3.97869E-03
             521               1     113.740E-03     98.6153E-03     6.79976E-03     4.81633E-03
             522               1     85.1596E-03     88.2040E-03     5.46428E-03     3.89715E-03
             523               1     95.9307E-03     127.513E-03     3.04224E-03     4.22916E-03
             524               1     131.663E-03     96.9198E-03     2.43485E-03     4.08987E-03
             525               1     93.2747E-03     109.170E-03     3.63466E-03     4.52959E-03
             526               1     88.1412E-03     86.3364E-03     3.82659E-03     4.07340E-03
             527               1     79.2089E-03     76.5511E-03     4.21623E-03     4.17017E-03
             528               1     65.9037E-03     67.3602E-03     4.08635E-03     3.66412E-03
             529               1     56.0977E-03     55.8446E-03     4.65701E-03     3.92655E-03
             530               1     46.4629E-03     45.0318E-03     4.37811E-03     3.44203E-03
             531               1     35.3200E-03     35.3957E-03     4.90968E-03     4.00870E-03
             532               1     24.1090E-03     26.7326E-03     4.59617E-03     4.11344E-03
             533               1     19.6090E-03     11.4828E-03     4.49306E-03     3.80286E-03
             534               1     21.3027E-03     36.6591E-03     6.05469E-03     5.88917E-03
             535               1     29.7752E-03     16.4238E-03     6.21736E-03     6.41660E-03
             536               1     12.1579E-03     19.0386E-03     6.41135E-03     6.53420E-03
             537               1     11.8264E-03     13.1111E-03     6.18349E-03     5.88249E-03
             538               1     231.085E-03     299.189E-03     16.6095E-03     23.4289E-03
             539               1     310.493E-03     231.621E-03     15.9907E-03     20.6831E-03
             540               1     237.751E-03     274.711E-03     18.5596E-03     17.3311E-03
             541               1     235.365E-03     233.538E-03     17.6755E-03     18.4738E-03
             542               1     228.500E-03     226.721E-03     15.6594E-03     15.5944E-03
             543               1     214.235E-03     219.094E-03     16.8230E-03     16.1183E-03
             544               1     205.085E-03     201.184E-03     14.7625E-03     13.6519E-03
             545               1     189.389E-03     211.508E-03     14.4575E-03     14.0029E-03
             546               1     216.532E-03     173.679E-03     17.0263E-03     12.2704E-03
             547               1     162.370E-03     187.489E-03     15.8362E-03     10.2241E-03
             548               1     166.863E-03     219.033E-03     16.4806E-03     21.2281E-03
             549               1     223.724E-03     165.382E-03     16.1633E-03     19.2809E-03
             550               1     167.900E-03     194.718E-03     17.8759E-03     16.7764E-03
             551               1     163.296E-03     162.392E-03     17.1900E-03     17.6702E-03
             552               1     156.131E-03     153.789E-03     15.8534E-03     15.6817E-03
             553               1     142.008E-03     146.233E-03     16.6291E-03     16.0310E-03
             554               1     133.320E-03     130.363E-03     15.2480E-03     14.4555E-03
             555               1     120.078E-03     132.015E-03     15.1412E-03     14.5576E-03
             556               1     130.535E-03     108.146E-03     16.8537E-03     13.6725E-03
             557               1     99.0908E-03     108.325E-03     15.9651E-03     12.4249E-03
             558               1     104.727E-03     140.994E-03     15.9999E-03     18.6929E-03
             559               1     139.441E-03     101.393E-03     16.0275E-03     17.5613E-03
             560               1     100.524E-03     117.235E-03     16.8810E-03     15.8656E-03
             561               1     93.7852E-03     93.9450E-03     16.4238E-03     16.5463E-03
             562               1     86.9116E-03     83.9356E-03     15.7987E-03     15.3995E-03
             563               1     72.9516E-03     76.4091E-03     16.1827E-03     15.6854E-03
             564               1     64.5013E-03     64.2463E-03     15.2837E-03     15.0535E-03
             565               1     56.2989E-03     55.3142E-03     15.7795E-03     14.9219E-03
             566               1     45.9925E-03     46.9226E-03     14.9527E-03     14.6225E-03
             567               1     41.5977E-03     40.3032E-03     16.4116E-03     14.7528E-03
             568               1     35.0725E-03     29.9229E-03     15.3807E-03     14.3102E-03
             569               1     35.6946E-03     47.5650E-03     17.4239E-03     18.1060E-03
             570               1     41.1924E-03     31.8109E-03     17.7464E-03     17.3382E-03
             571               1     32.0741E-03     34.4624E-03     18.1523E-03     17.0637E-03
             572               1     31.2973E-03     31.4016E-03     17.7424E-03     17.7255E-03
             573               1     242.884E-03     308.883E-03     45.1780E-03     41.3000E-03
             574               1     323.379E-03     249.181E-03     39.8110E-03     36.3627E-03
             575               1     235.590E-03     285.904E-03     33.7393E-03     35.1007E-03
             576               1     243.588E-03     239.896E-03     29.3810E-03     29.5588E-03
             577               1     232.078E-03     237.984E-03     30.2312E-03     28.8099E-03
             578               1     216.716E-03     227.797E-03     24.5435E-03     26.7780E-03
             579               1     212.802E-03     209.905E-03     24.9896E-03     25.1121E-03
             580               1     187.350E-03     220.194E-03     21.3385E-03     21.8812E-03
             581               1     224.314E-03     183.274E-03     17.0094E-03     18.3199E-03
             582               1     165.806E-03     200.157E-03     13.2404E-03     14.4044E-03
             583               1     178.168E-03     226.480E-03     39.8551E-03     36.8174E-03
             584               1     234.666E-03     180.336E-03     36.0107E-03     33.3556E-03
             585               1     168.750E-03     204.742E-03     31.6725E-03     32.8974E-03
             586               1     171.138E-03     168.644E-03     28.6491E-03     28.8177E-03
             587               1     161.183E-03     164.319E-03     29.2832E-03     28.4713E-03
             588               1     146.231E-03     154.394E-03     25.4915E-03     27.1166E-03
             589               1     141.143E-03     139.453E-03     25.7215E-03     25.8533E-03
             590               1     121.963E-03     140.530E-03     23.4053E-03     24.0844E-03
             591               1     137.465E-03     116.276E-03     20.8097E-03     21.3271E-03
             592               1     103.650E-03     119.982E-03     18.5633E-03     18.8870E-03
             593               1     116.004E-03     146.408E-03     34.2495E-03     31.9815E-03
             594               1     148.671E-03     114.387E-03     31.9014E-03     30.0054E-03
             595               1     105.221E-03     126.622E-03     29.2813E-03     30.3024E-03
             596               1     102.490E-03     101.467E-03     27.5677E-03     27.6162E-03
             597               1     94.9745E-03     95.1431E-03     28.0390E-03     27.7736E-03
             598               1     81.6538E-03     86.5443E-03     26.1601E-03     27.0179E-03
             599               1     75.9123E-03     76.7170E-03     26.5000E-03     26.6183E-03
             600               1     66.8088E-03     68.4676E-03     25.4272E-03     26.1646E-03
             601               1     58.9034E-03     61.6027E-03     25.3350E-03     25.8568E-03
             602               1     53.5768E-03     52.8596E-03     24.3591E-03     24.1762E-03
             603               1     48.9674E-03     46.6807E-03     24.0396E-03     23.3587E-03
             604               1     54.1498E-03     60.3168E-03     29.2939E-03     28.6359E-03
             605               1     57.1468E-03     51.2549E-03     28.5206E-03     28.5682E-03
             606               1     49.1704E-03     51.8147E-03     28.1887E-03     28.3925E-03
             607               1     48.5412E-03     47.5606E-03     27.7641E-03     27.3774E-03
             608               1     280.387E-03     310.638E-03     77.6821E-03     65.0303E-03
             609               1     307.392E-03     251.770E-03     67.9146E-03     60.9215E-03
             610               1     240.559E-03     269.951E-03     41.8989E-03     48.2797E-03
             611               1     249.495E-03     235.348E-03     44.7887E-03     40.8807E-03
             612               1     232.053E-03     234.630E-03     39.0345E-03     40.3588E-03
             613               1     223.345E-03     223.430E-03     36.5746E-03     36.1024E-03
             614               1     214.359E-03     208.831E-03     32.6673E-03     35.6581E-03
             615               1     196.412E-03     210.408E-03     33.2177E-03     30.1544E-03
             616               1     204.726E-03     175.221E-03     16.7514E-03     21.7462E-03
             617               1     167.118E-03     188.275E-03     4.22530E-03     13.2341E-03
             618               1     210.330E-03     231.702E-03     65.4393E-03     56.3976E-03
             619               1     227.475E-03     187.378E-03     59.3874E-03     54.3923E-03
             620               1     174.516E-03     196.263E-03     40.4520E-03     45.2588E-03
             621               1     179.178E-03     168.681E-03     42.7685E-03     40.0103E-03
             622               1     163.596E-03     165.789E-03     38.6245E-03     39.6494E-03
             623               1     155.306E-03     155.131E-03     36.9846E-03     36.8118E-03
             624               1     145.736E-03     143.531E-03     34.6876E-03     36.5285E-03
             625               1     132.647E-03     139.469E-03     34.6646E-03     33.1753E-03
             626               1     129.204E-03     115.413E-03     25.2786E-03     28.2754E-03
             627               1     102.207E-03     113.959E-03     16.4681E-03     21.8668E-03
             628               1     142.418E-03     154.960E-03     52.9427E-03     47.4405E-03
             629               1     150.554E-03     126.368E-03     50.5167E-03     47.4547E-03
             630               1     113.072E-03     126.813E-03     38.5209E-03     41.8473E-03
             631               1     113.773E-03     107.375E-03     40.2851E-03     38.6651E-03
             632               1     101.643E-03     103.275E-03     37.6180E-03     38.3972E-03
             633               1     94.6914E-03     94.6115E-03     36.9456E-03     37.2771E-03
             634               1     87.4919E-03     88.0473E-03     36.5488E-03     36.7884E-03
             635               1     81.0977E-03     81.4735E-03     36.1478E-03     36.7847E-03
             636               1     74.0832E-03     75.2185E-03     35.5908E-03     35.8821E-03
             637               1     67.5590E-03     68.0100E-03     34.3021E-03     34.9680E-03
             638               1     55.7927E-03     57.0928E-03     29.5531E-03     30.9164E-03
             639               1     77.5785E-03     80.2258E-03     41.7458E-03     40.4490E-03
             640               1     79.3603E-03     75.3960E-03     43.1595E-03     42.5822E-03
             641               1     69.9111E-03     72.2701E-03     40.3179E-03     41.2093E-03
             642               1     66.0547E-03     66.2162E-03     38.1087E-03     37.8638E-03
             643               1     5.64346E-15     2.82574E-15     737.356E-18     788.157E-18
             644               1     3.87083E-15     1.84780E-15    -733.893E-18    -791.621E-18
             645               1     3.14192E-15     2.21468E-15     1.79684E-15     1.25419E-15
             646               1     4.49420E-15     4.79696E-15    -730.429E-18    -795.084E-18
             647               1     2.73324E-15     2.71563E-15    -761.602E-18    -763.911E-18
             648               1     2.11243E-15     2.72126E-15    -776.611E-18    -748.902E-18
             649               1     3.25201E-15     3.47472E-15    -1.65713E-15    -1.39389E-15
             650               1     4.10744E-15     4.53621E-15     918.623E-18     606.891E-18
             651               1     3.14668E-15     3.70631E-15    -1.55091E-15    -1.50011E-15
             652               1     1.34670E-15     1.86873E-15    -584.954E-18    -940.559E-18
             653               1     3.61026E-15     3.27527E-15     1.29114E-15     1.75989E-15
             654               1     5.81559E-15     3.79939E-15     1.93076E-15     1.12026E-15
             655               1     3.50227E-15     3.79744E-15     1.15259E-15     1.89844E-15
             656               1     4.93045E-15     5.25163E-15     1.86380E-15     1.18723E-15
             657               1     329.075E-18     512.333E-18    -106.220E-18     106.220E-18
             658               1     4.35708E-15     3.62070E-15    -51.9553E-18     51.9553E-18
             659               1     4.19784E-15     3.79490E-15    -2.40834E-15    -2.16820E-15
             660               1     2.66736E-15     2.81474E-15    -1.46548E-15    -1.58555E-15
             661               1     3.10214E-15     2.03021E-15     582.645E-18     942.868E-18
             662               1     4.92152E-15     4.63729E-15     1.55091E-15     1.50011E-15
             663               1     4.61723E-15     4.27068E-15     767.375E-18     758.138E-18
             664               1     1.98366E-15     3.14429E-15     313.632E-18     1.21188E-15
             665               1     3.25995E-15     3.53853E-15     1.53821E-15     1.51281E-15
             666               1     2.59104E-15     2.69499E-15     1.49549E-15     1.55553E-15
             667               1     4.87283E-15     3.12914E-15     2.80320E-15     1.77333E-15
             668               1     155.433E-18     155.433E-18    -36.9460E-18     36.9460E-18
             669               1     4.13856E-15     4.32904E-15    -572.254E-18    -953.260E-18
             670               1     782.310E-18     560.321E-18    -244.767E-18     244.767E-18
             671               1     4.68497E-15     4.66233E-15     820.485E-18     705.028E-18
             672               1     385.499E-18     385.499E-18    -205.512E-18     205.512E-18
             673               1     4.15871E-15     4.32197E-15     860.894E-18     664.619E-18
             674               1     2.02860E-15     1.98041E-15    -15.0093E-18     15.0093E-18
             675               1     3.12538E-15     3.53992E-15    -1.51050E-15    -1.54052E-15
             676               1     2.65595E-15     2.21097E-15     810.094E-18     715.420E-18
             677               1     4.69920E-15     5.00814E-15    -1.21378E-15    -1.83725E-15
             678               1     559.885E-18     540.764E-18     125.847E-18    -125.847E-18
             679               1     1.92825E-15     2.09106E-15     9.23651E-18    -9.23651E-18
             680               1     4.35811E-15     4.60826E-15     2.14510E-15     2.43144E-15
             681               1     3.52681E-15     3.67786E-15    -1.39043E-15    -1.66060E-15
             682               1     3.24941E-15     2.54963E-15    -1.74719E-15    -1.30384E-15
             683               1     4.36328E-15     4.66543E-15    -2.00656E-15    -2.56998E-15
             684               1     3.27092E-15     2.81782E-15    -1.66060E-15    -1.39043E-15
             685               1     2.07604E-15     2.76932E-15     567.635E-18     957.878E-18
             686               1     3.15119E-15     3.69117E-15    -1.54630E-15    -1.50473E-15
             687               1     3.73496E-15     4.85425E-15    -235.531E-18     235.531E-18
             688               1     2.29139E-15     2.74676E-15    -744.284E-18    -781.230E-18
             689               1     2.61775E-15     3.17485E-15    -1.39967E-15    -1.65136E-15
             690               1     5.01195E-15     3.96629E-15    -2.40257E-15    -2.17397E-15
             691               1     5.84874E-15     5.68699E-15    -2.90902E-15    -3.19304E-15
             692               1     1.50979E-15     3.53660E-15     558.399E-18     967.114E-18
             693               1     1.55584E-15     2.71635E-15     76.2012E-18    -76.2012E-18
             694               1     1.02960E-15     1.13189E-15    -180.112E-18     180.112E-18
             695               1     2.35377E-15     2.49856E-15     750.056E-18     775.457E-18
             696               1     4.02112E-15     4.22379E-15     11.5456E-18    -11.5456E-18
             697               1     5.16000E-15     4.69521E-15    -1.88343E-15    -1.16760E-15
             698               1     4.49008E-15     3.99965E-15    -507.598E-18    -1.01792E-15
             699               1     3.19588E-15     3.78941E-15    -1.48857E-15    -1.56246E-15
             700               1     45.1594E-03     43.9426E-03    -16.0937E-03    -17.3435E-03
             701               1     43.4410E-03     43.3883E-03    -24.7627E-03    -24.8616E-03
             702               1     45.4414E-03     45.7863E-03    -26.1632E-03    -26.3245E-03
             703               1     52.7546E-03     52.8784E-03    -30.2099E-03    -30.1883E-03
             704               1     55.0205E-03     55.2711E-03    -31.4603E-03    -31.5027E-03
             705               1     59.0306E-03     59.1694E-03    -33.8067E-03    -33.7946E-03
             706               1     59.8199E-03     59.9694E-03    -34.3500E-03    -34.3588E-03
             707               1     61.8072E-03     61.9058E-03    -35.5775E-03    -35.5753E-03
             708               1     61.8856E-03     61.9499E-03    -35.6905E-03    -35.6893E-03
             709               1     62.8339E-03     62.8676E-03    -36.2718E-03    -36.2731E-03
             710               1     62.6486E-03     62.6363E-03    -36.1660E-03    -36.1627E-03
             711               1     63.0788E-03     63.0356E-03    -36.3820E-03    -36.3815E-03
             712               1     62.7019E-03     62.6223E-03    -36.0955E-03    -36.0959E-03
             713               1     62.7698E-03     62.6261E-03    -36.0358E-03    -36.0204E-03
             714               1     61.9873E-03     61.8711E-03    -35.4554E-03    -35.4769E-03
             715               1     61.5570E-03     61.2433E-03    -35.0613E-03    -34.9921E-03
             716               1     59.8449E-03     59.7358E-03    -33.9337E-03    -34.0012E-03
             717               1     58.5470E-03     57.8879E-03    -33.0800E-03    -32.8594E-03
             718               1     54.9205E-03     54.7914E-03    -31.0172E-03    -31.1233E-03
             719               1     26.0247E-03     27.4229E-03    -12.1480E-03    -12.4137E-03
             720               1     43.4224E-03     44.2359E-03    -24.8329E-03    -25.3999E-03
             721               1     51.0569E-03     51.2738E-03    -29.0105E-03    -29.0874E-03
             722               1     54.3601E-03     54.7301E-03    -30.8019E-03    -30.9325E-03
             723               1     58.6702E-03     58.8010E-03    -33.2538E-03    -33.2518E-03
             724               1     59.3007E-03     59.4799E-03    -33.7988E-03    -33.8270E-03
             725               1     61.2512E-03     61.3566E-03    -35.0559E-03    -35.0581E-03
             726               1     61.1282E-03     61.1996E-03    -35.1407E-03    -35.1374E-03
             727               1     62.0027E-03     62.0671E-03    -35.7296E-03    -35.7370E-03
             728               1     61.7828E-03     61.7851E-03    -35.6598E-03    -35.6480E-03
             729               1     62.2220E-03     62.2346E-03    -35.9222E-03    -35.9306E-03
             730               1     62.0111E-03     61.9591E-03    -35.7671E-03    -35.7544E-03
             731               1     62.2610E-03     62.1976E-03    -35.8405E-03    -35.8371E-03
             732               1     61.9479E-03     61.8756E-03    -35.5464E-03    -35.5507E-03
             733               1     62.0646E-03     61.8418E-03    -35.4591E-03    -35.3986E-03
             734               1     61.2944E-03     61.3018E-03    -34.8384E-03    -34.9120E-03
             735               1     61.0891E-03     60.5171E-03    -34.5088E-03    -34.2790E-03
             736               1     59.1490E-03     59.3159E-03    -33.2565E-03    -33.4272E-03
             737               1     57.8499E-03     56.7324E-03    -32.4123E-03    -31.8563E-03
             738               1     19.4830E-03     18.4856E-03    -11.2176E-03    -10.6516E-03
             739               1     38.6414E-03     38.2819E-03    -22.1391E-03    -21.9792E-03
             740               1     51.7082E-03     52.1471E-03    -29.2649E-03    -29.4972E-03
             741               1     58.0628E-03     58.0843E-03    -32.6160E-03    -32.6069E-03
             742               1     59.7762E-03     59.9857E-03    -33.8089E-03    -33.8796E-03
             743               1     61.8314E-03     61.8985E-03    -35.1149E-03    -35.1208E-03
             744               1     61.4052E-03     61.4739E-03    -35.1269E-03    -35.1329E-03
             745               1     61.9377E-03     61.9968E-03    -35.5565E-03    -35.5673E-03
             746               1     61.4711E-03     61.4764E-03    -35.4183E-03    -35.4059E-03
             747               1     61.6664E-03     61.7036E-03    -35.5841E-03    -35.5977E-03
             748               1     61.4354E-03     61.4024E-03    -35.4682E-03    -35.4504E-03
             749               1     61.6244E-03     61.6282E-03    -35.5497E-03    -35.5610E-03
             750               1     61.5618E-03     61.5089E-03    -35.4386E-03    -35.4235E-03
             751               1     61.8440E-03     61.7691E-03    -35.4832E-03    -35.4689E-03
             752               1     61.7405E-03     61.7395E-03    -35.2701E-03    -35.2913E-03
             753               1     62.0822E-03     61.8061E-03    -35.2473E-03    -35.1440E-03
             754               1     61.3350E-03     61.6061E-03    -34.6204E-03    -34.7827E-03
             755               1     60.9466E-03     60.4074E-03    -34.1419E-03    -33.8879E-03
             756               1     58.2721E-03     58.9727E-03    -32.5692E-03    -32.9071E-03
             757               1     21.8974E-03     21.3220E-03    -10.4757E-03    -10.2028E-03
             758               1     39.4987E-03     39.1049E-03    -21.2908E-03    -21.0605E-03
             759               1     52.2857E-03     51.8964E-03    -28.9706E-03    -28.8231E-03
             760               1     58.6326E-03     58.7537E-03    -32.8894E-03    -32.9493E-03
             761               1     62.1523E-03     62.1273E-03    -35.0326E-03    -35.0385E-03
             762               1     62.0995E-03     62.1242E-03    -35.3593E-03    -35.3662E-03
             763               1     62.3700E-03     62.3940E-03    -35.6357E-03    -35.6525E-03
             764               1     61.6915E-03     61.6745E-03    -35.4461E-03    -35.4338E-03
             765               1     61.4703E-03     61.5008E-03    -35.4005E-03    -35.4179E-03
             766               1     61.0995E-03     61.0690E-03    -35.2602E-03    -35.2422E-03
             767               1     61.0170E-03     61.0508E-03    -35.2278E-03    -35.2473E-03
             768               1     60.9931E-03     60.9541E-03    -35.1868E-03    -35.1641E-03
             769               1     61.1550E-03     61.1846E-03    -35.2129E-03    -35.2324E-03
             770               1     61.3744E-03     61.3451E-03    -35.2296E-03    -35.2067E-03
             771               1     61.7840E-03     61.7704E-03    -35.2985E-03    -35.3031E-03
             772               1     61.9333E-03     62.0235E-03    -35.2127E-03    -35.2346E-03
             773               1     62.2771E-03     62.1715E-03    -35.1227E-03    -35.0999E-03
             774               1     61.1448E-03     61.7711E-03    -34.2525E-03    -34.5370E-03
             775               1     58.9227E-03     59.2616E-03    -32.6843E-03    -32.8719E-03
             776               1     31.5854E-03     30.7663E-03    -10.2599E-03    -9.89195E-03
             777               1     44.2625E-03     43.4963E-03    -21.8595E-03    -21.5519E-03
             778               1     53.5659E-03     53.3619E-03    -28.8246E-03    -28.7321E-03
             779               1     60.6836E-03     60.4412E-03    -33.6907E-03    -33.6567E-03
             780               1     61.8823E-03     61.7815E-03    -35.0328E-03    -35.0056E-03
             781               1     62.3795E-03     62.3292E-03    -35.4560E-03    -35.4743E-03
             782               1     61.9101E-03     61.8345E-03    -35.4613E-03    -35.4409E-03
             783               1     61.3147E-03     61.3092E-03    -35.2081E-03    -35.2281E-03
             784               1     60.8962E-03     60.8452E-03    -35.0903E-03    -35.0730E-03
             785               1     60.4540E-03     60.4787E-03    -34.8817E-03    -34.9028E-03
             786               1     60.3818E-03     60.3493E-03    -34.8612E-03    -34.8409E-03
             787               1     60.2748E-03     60.3387E-03    -34.7786E-03    -34.8077E-03
             788               1     60.5457E-03     60.5224E-03    -34.8714E-03    -34.8395E-03
             789               1     60.7576E-03     60.8740E-03    -34.8882E-03    -34.9372E-03
             790               1     61.2840E-03     61.2725E-03    -35.0617E-03    -35.0090E-03
             791               1     61.6921E-03     61.8739E-03    -35.0793E-03    -35.1715E-03
             792               1     61.9749E-03     62.0887E-03    -35.0546E-03    -35.0242E-03
             793               1     61.9254E-03     62.1979E-03    -34.6080E-03    -34.7967E-03
             794               1     59.5834E-03     60.4288E-03    -32.7557E-03    -33.1959E-03
             795               1     43.2619E-03     42.6607E-03    -11.1949E-03    -10.6576E-03
             796               1     50.5884E-03     50.2305E-03    -22.2731E-03    -22.1361E-03
             797               1     59.6136E-03     59.1884E-03    -31.2228E-03    -31.2335E-03
             798               1     60.1819E-03     59.7937E-03    -33.4924E-03    -33.3546E-03
             799               1     61.0743E-03     60.9152E-03    -34.3669E-03    -34.3904E-03
             800               1     61.3395E-03     61.1394E-03    -34.9715E-03    -34.9171E-03
             801               1     60.5723E-03     60.5073E-03    -34.6449E-03    -34.6685E-03
             802               1     60.4558E-03     60.3513E-03    -34.7536E-03    -34.7306E-03
             803               1     59.7259E-03     59.7133E-03    -34.4013E-03    -34.4220E-03
             804               1     59.7096E-03     59.6625E-03    -34.4570E-03    -34.4405E-03
             805               1     59.3178E-03     59.3655E-03    -34.2471E-03    -34.2726E-03
             806               1     59.5540E-03     59.5441E-03    -34.3645E-03    -34.3405E-03
             807               1     59.4911E-03     59.6283E-03    -34.2736E-03    -34.3225E-03
             808               1     60.0232E-03     60.0195E-03    -34.4906E-03    -34.4366E-03
             809               1     60.1833E-03     60.4685E-03    -34.4400E-03    -34.5539E-03
             810               1     60.9559E-03     60.8929E-03    -34.7380E-03    -34.6014E-03
             811               1     61.1021E-03     61.6012E-03    -34.5239E-03    -34.7660E-03
             812               1     61.5204E-03     61.3387E-03    -34.4962E-03    -34.2274E-03
             813               1     61.6743E-03     61.9158E-03    -33.7479E-03    -33.9388E-03
             814               1     60.1548E-03     60.0597E-03    -11.7724E-03    -11.9210E-03
             815               1     65.3274E-03     64.6162E-03    -28.4250E-03    -28.5793E-03
             816               1     59.4020E-03     58.7140E-03    -31.4439E-03    -31.2308E-03
             817               1     58.6313E-03     58.3133E-03    -32.0600E-03    -32.1114E-03
             818               1     59.5389E-03     59.1491E-03    -33.5586E-03    -33.4561E-03
             819               1     58.6745E-03     58.5080E-03    -33.3092E-03    -33.3344E-03
             820               1     59.3136E-03     59.1199E-03    -33.9549E-03    -33.9212E-03
             821               1     58.4953E-03     58.4156E-03    -33.5894E-03    -33.6078E-03
             822               1     58.7951E-03     58.7069E-03    -33.8730E-03    -33.8592E-03
             823               1     58.2186E-03     58.2168E-03    -33.5892E-03    -33.6065E-03
             824               1     58.4999E-03     58.4858E-03    -33.7748E-03    -33.7614E-03
             825               1     58.2103E-03     58.3041E-03    -33.5937E-03    -33.6222E-03
             826               1     58.6440E-03     58.6812E-03    -33.7935E-03    -33.7655E-03
             827               1     58.5644E-03     58.8021E-03    -33.6589E-03    -33.7298E-03
             828               1     59.2277E-03     59.2546E-03    -33.9252E-03    -33.8417E-03
             829               1     59.1593E-03     59.6339E-03    -33.6920E-03    -33.8689E-03
             830               1     60.0936E-03     59.9249E-03    -34.0349E-03    -33.7650E-03
             831               1     59.9164E-03     60.6219E-03    -33.4542E-03    -33.7556E-03
             832               1     61.1827E-03     60.4131E-03    -33.7415E-03    -32.9750E-03
             833               1     87.5904E-03     86.4619E-03    -21.3596E-03    -21.9754E-03
             834               1     64.1942E-03     63.1486E-03    -29.7781E-03    -29.5070E-03
             835               1     55.8997E-03     55.3529E-03    -28.0883E-03    -28.2230E-03
             836               1     57.1141E-03     56.4817E-03    -31.1503E-03    -31.0291E-03
             837               1     55.6098E-03     55.2858E-03    -30.9933E-03    -31.0344E-03
             838               1     57.3117E-03     56.9793E-03    -32.5005E-03    -32.4608E-03
             839               1     56.5751E-03     56.3873E-03    -32.2969E-03    -32.3130E-03
             840               1     57.4672E-03     57.3024E-03    -32.9920E-03    -32.9800E-03
             841               1     56.8432E-03     56.7633E-03    -32.7272E-03    -32.7363E-03
             842               1     57.3136E-03     57.2638E-03    -33.0650E-03    -33.0590E-03
             843               1     56.8830E-03     56.9093E-03    -32.8406E-03    -32.8499E-03
             844               1     57.2837E-03     57.3319E-03    -33.0614E-03    -33.0530E-03
             845               1     57.0583E-03     57.2046E-03    -32.8847E-03    -32.9051E-03
             846               1     57.5409E-03     57.6669E-03    -33.0812E-03    -33.0581E-03
             847               1     57.3767E-03     57.6804E-03    -32.8555E-03    -32.9131E-03
             848               1     57.9853E-03     58.1274E-03    -33.0409E-03    -32.9596E-03
             849               1     57.6176E-03     58.1479E-03    -32.5393E-03    -32.6795E-03
             850               1     58.6312E-03     58.6296E-03    -32.7905E-03    -32.4941E-03
             851               1     57.9708E-03     58.8668E-03    -31.5647E-03    -31.8142E-03
             852               1     20.8237E-03     26.7303E-03    -11.0530E-03    -13.2771E-03
             853               1     41.6354E-03     44.0307E-03    -19.4009E-03    -20.0257E-03
             854               1     50.6119E-03     51.8392E-03    -23.8576E-03    -24.0856E-03
             855               1     57.8939E-03     58.6652E-03    -28.5445E-03    -28.6785E-03
             856               1     61.5356E-03     62.0229E-03    -31.5055E-03    -31.5652E-03
             857               1     65.2482E-03     65.5901E-03    -34.7486E-03    -34.7833E-03
             858               1     66.5011E-03     66.7328E-03    -36.4680E-03    -36.4803E-03
             859               1     68.5371E-03     68.7066E-03    -38.5039E-03    -38.5147E-03
             860               1     68.8342E-03     68.9187E-03    -39.3002E-03    -39.2929E-03
             861               1     70.0492E-03     70.0986E-03    -40.3592E-03    -40.3624E-03
             862               1     70.1109E-03     70.0709E-03    -40.4684E-03    -40.4520E-03
             863               1     70.9574E-03     70.8797E-03    -40.7409E-03    -40.7352E-03
             864               1     70.9985E-03     70.8256E-03    -40.2469E-03    -40.2254E-03
             865               1     71.5713E-03     71.3247E-03    -39.7939E-03    -39.7676E-03
             866               1     71.4320E-03     71.0894E-03    -38.6361E-03    -38.6097E-03
             867               1     71.4492E-03     70.9527E-03    -37.3676E-03    -37.3030E-03
             868               1     70.6544E-03     70.0310E-03    -35.3911E-03    -35.3454E-03
             869               1     69.4086E-03     68.5346E-03    -33.0977E-03    -32.9864E-03
             870               1     66.9629E-03     65.8717E-03    -30.0771E-03    -29.9949E-03
             871               1     33.3095E-03     31.1118E-03    -12.8628E-03    -13.4498E-03
             872               1     48.6761E-03     50.4926E-03    -20.7886E-03    -21.9974E-03
             873               1     57.5826E-03     58.7492E-03    -25.6150E-03    -26.1732E-03
             874               1     61.7563E-03     62.4889E-03    -28.8297E-03    -29.1097E-03
             875               1     65.0507E-03     65.5627E-03    -32.1869E-03    -32.3623E-03
             876               1     65.7870E-03     66.1093E-03    -34.0403E-03    -34.1155E-03
             877               1     67.2062E-03     67.4398E-03    -36.2429E-03    -36.3020E-03
             878               1     66.8706E-03     66.9764E-03    -37.1804E-03    -37.1795E-03
             879               1     67.6153E-03     67.7200E-03    -38.4207E-03    -38.4439E-03
             880               1     67.3203E-03     67.2913E-03    -38.7373E-03    -38.7031E-03
             881               1     67.9982E-03     68.0017E-03    -39.2523E-03    -39.2570E-03
             882               1     68.1188E-03     67.9853E-03    -39.0851E-03    -39.0324E-03
             883               1     68.9892E-03     68.8596E-03    -39.0129E-03    -38.9867E-03
             884               1     69.4642E-03     69.2419E-03    -38.3456E-03    -38.2827E-03
             885               1     70.4488E-03     70.1201E-03    -37.6844E-03    -37.5923E-03
             886               1     70.9169E-03     70.6127E-03    -36.3846E-03    -36.3175E-03
             887               1     71.5009E-03     70.9644E-03    -34.9953E-03    -34.8053E-03
             888               1     71.2588E-03     70.9011E-03    -32.8872E-03    -32.8202E-03
             889               1     70.2451E-03     69.7652E-03    -30.5140E-03    -30.2766E-03
             890               1     40.3565E-03     39.7308E-03    -11.6148E-03    -11.0425E-03
             891               1     54.0093E-03     52.6375E-03    -21.1332E-03    -21.1137E-03
             892               1     62.0248E-03     62.4927E-03    -26.1731E-03    -26.7500E-03
             893               1     66.5193E-03     66.8245E-03    -30.2593E-03    -30.5107E-03
             894               1     67.4875E-03     67.8130E-03    -32.4217E-03    -32.6224E-03
             895               1     68.5513E-03     68.7545E-03    -34.8784E-03    -34.9938E-03
             896               1     67.3840E-03     67.4996E-03    -35.8406E-03    -35.8820E-03
             897               1     67.4043E-03     67.5130E-03    -37.1664E-03    -37.2183E-03
             898               1     66.2792E-03     66.2569E-03    -37.5200E-03    -37.4943E-03
             899               1     66.3481E-03     66.3994E-03    -38.1232E-03    -38.1477E-03
             900               1     66.0508E-03     65.9497E-03    -38.1267E-03    -38.0696E-03
             901               1     66.6997E-03     66.6859E-03    -38.2681E-03    -38.2678E-03
             902               1     67.2987E-03     67.1648E-03    -37.9606E-03    -37.8876E-03
             903               1     68.6383E-03     68.5116E-03    -37.7192E-03    -37.6683E-03
             904               1     69.8024E-03     69.7225E-03    -36.9771E-03    -36.9194E-03
             905               1     71.4992E-03     71.2391E-03    -36.2674E-03    -36.1238E-03
             906               1     72.5516E-03     72.6743E-03    -34.8336E-03    -34.8621E-03
             907               1     73.5463E-03     73.4003E-03    -33.3716E-03    -33.1645E-03
             908               1     73.1547E-03     73.8905E-03    -30.8519E-03    -31.1838E-03
             909               1     50.2430E-03     48.8654E-03    -10.6706E-03    -10.7138E-03
             910               1     58.4023E-03     57.7123E-03    -19.6561E-03    -19.5212E-03
             911               1     65.9917E-03     65.0651E-03    -26.8157E-03    -26.7223E-03
             912               1     69.0411E-03     69.0385E-03    -30.3688E-03    -30.6254E-03
             913               1     70.9834E-03     70.8742E-03    -33.7706E-03    -33.8657E-03
             914               1     69.4983E-03     69.5218E-03    -34.9584E-03    -35.0456E-03
             915               1     69.1026E-03     69.1104E-03    -36.4925E-03    -36.5636E-03
             916               1     66.9904E-03     66.9288E-03    -36.7987E-03    -36.7906E-03
             917               1     66.2458E-03     66.2821E-03    -37.3846E-03    -37.4299E-03
             918               1     65.1281E-03     65.0266E-03    -37.4047E-03    -37.3561E-03
             919               1     65.1041E-03     65.1567E-03    -37.5823E-03    -37.6119E-03
             920               1     65.3375E-03     65.2438E-03    -37.4689E-03    -37.3984E-03
             921               1     66.4233E-03     66.4705E-03    -37.4323E-03    -37.4400E-03
             922               1     67.7874E-03     67.7907E-03    -37.1200E-03    -37.0524E-03
             923               1     69.8838E-03     69.8815E-03    -36.8582E-03    -36.8150E-03
             924               1     71.7067E-03     72.0174E-03    -36.0599E-03    -36.0911E-03
             925               1     74.0411E-03     74.0593E-03    -35.3163E-03    -35.2005E-03
             926               1     75.1765E-03     76.0283E-03    -33.4927E-03    -33.8091E-03
             927               1     75.8347E-03     76.2783E-03    -31.5671E-03    -31.5714E-03
             928               1     60.3182E-03     58.8031E-03    -9.90804E-03    -9.39399E-03
             929               1     64.8702E-03     63.5647E-03    -19.6004E-03    -19.3405E-03
             930               1     69.1088E-03     68.4775E-03    -25.9043E-03    -25.9001E-03
             931               1     72.8675E-03     72.0291E-03    -31.6733E-03    -31.5593E-03
             932               1     71.8038E-03     71.5637E-03    -33.7346E-03    -33.8126E-03
             933               1     71.7759E-03     71.4901E-03    -35.9856E-03    -36.0189E-03
             934               1     68.8255E-03     68.6340E-03    -36.3340E-03    -36.3279E-03
             935               1     67.4168E-03     67.3410E-03    -36.9232E-03    -36.9741E-03
             936               1     65.3258E-03     65.1662E-03    -36.8768E-03    -36.8353E-03
             937               1     64.4036E-03     64.4424E-03    -36.9616E-03    -37.0111E-03
             938               1     63.9045E-03     63.8063E-03    -36.8901E-03    -36.8299E-03
             939               1     64.2761E-03     64.4161E-03    -36.8668E-03    -36.9179E-03
             940               1     65.3685E-03     65.3837E-03    -36.8041E-03    -36.7326E-03
             941               1     67.1914E-03     67.4037E-03    -36.7490E-03    -36.7961E-03
             942               1     69.3646E-03     69.6478E-03    -36.5092E-03    -36.4791E-03
             943               1     72.3026E-03     72.5111E-03    -36.2917E-03    -36.3022E-03
             944               1     74.4675E-03     75.3384E-03    -35.2815E-03    -35.5016E-03
             945               1     77.1801E-03     77.4501E-03    -34.3117E-03    -34.2549E-03
             946               1     77.9369E-03     79.0787E-03    -31.5356E-03    -32.1043E-03
             947               1     69.7440E-03     68.8653E-03    -9.54902E-03    -9.18341E-03
             948               1     72.1743E-03     70.9249E-03    -18.7597E-03    -18.5297E-03
             949               1     75.1344E-03     73.8383E-03    -27.4467E-03    -27.1777E-03
             950               1     74.0540E-03     73.4100E-03    -31.2502E-03    -31.1989E-03
             951               1     74.8672E-03     74.0971E-03    -35.0948E-03    -35.0194E-03
             952               1     71.0454E-03     70.5963E-03    -35.7423E-03    -35.6822E-03
             953               1     69.2677E-03     68.9627E-03    -36.4799E-03    -36.5071E-03
             954               1     66.2624E-03     65.9584E-03    -36.4013E-03    -36.3454E-03
             955               1     64.4521E-03     64.3864E-03    -36.3365E-03    -36.3897E-03
             956               1     63.0812E-03     62.9200E-03    -36.2273E-03    -36.1736E-03
             957               1     62.5025E-03     62.6334E-03    -36.0831E-03    -36.1541E-03
             958               1     62.9652E-03     62.9572E-03    -36.1032E-03    -36.0400E-03
             959               1     64.0412E-03     64.3691E-03    -36.0513E-03    -36.1518E-03
             960               1     66.0959E-03     66.2953E-03    -36.1534E-03    -36.0815E-03
             961               1     68.7607E-03     69.2225E-03    -36.1580E-03    -36.2877E-03
             962               1     71.6447E-03     72.2395E-03    -36.0113E-03    -36.0093E-03
             963               1     75.4855E-03     75.8449E-03    -35.8021E-03    -35.8891E-03
             964               1     77.7808E-03     79.0423E-03    -34.2898E-03    -34.6846E-03
             965               1     80.8512E-03     81.1735E-03    -32.7354E-03    -32.5918E-03
             966               1     82.2458E-03     80.4102E-03    -9.03565E-03    -8.74863E-03
             967               1     81.3414E-03     80.0321E-03    -20.8702E-03    -20.4437E-03
             968               1     78.9135E-03     77.9314E-03    -27.1917E-03    -27.0755E-03
             969               1     79.5732E-03     78.3229E-03    -33.6429E-03    -33.4598E-03
             970               1     73.6410E-03     72.8447E-03    -34.7619E-03    -34.5756E-03
             971               1     71.4062E-03     70.7764E-03    -35.7467E-03    -35.7219E-03
             972               1     67.4832E-03     66.9406E-03    -35.7643E-03    -35.6572E-03
             973               1     64.8543E-03     64.5950E-03    -35.5361E-03    -35.5743E-03
             974               1     62.6788E-03     62.3809E-03    -35.4116E-03    -35.3501E-03
             975               1     61.1161E-03     61.1366E-03    -35.0824E-03    -35.1508E-03
             976               1     60.7933E-03     60.7233E-03    -35.0969E-03    -35.0458E-03
             977               1     60.9093E-03     61.2187E-03    -34.9277E-03    -35.0370E-03
             978               1     62.4297E-03     62.5756E-03    -35.1428E-03    -35.0749E-03
             979               1     64.3157E-03     64.9075E-03    -35.1466E-03    -35.3230E-03
             980               1     67.3063E-03     67.6885E-03    -35.4832E-03    -35.3804E-03
             981               1     70.8360E-03     71.5505E-03    -35.5470E-03    -35.7837E-03
             982               1     74.4462E-03     75.1961E-03    -35.5370E-03    -35.4547E-03
             983               1     79.6622E-03     79.8945E-03    -35.3223E-03    -35.3983E-03
             984               1     82.4205E-03     83.7458E-03    -32.9764E-03    -33.5318E-03
             985               1     93.7005E-03     93.2455E-03    -10.4807E-03    -9.95477E-03
             986               1     90.8407E-03     89.5028E-03    -21.1443E-03    -21.1157E-03
             987               1     89.3654E-03     87.7368E-03    -32.2903E-03    -32.0386E-03
             988               1     77.9604E-03     76.8107E-03    -33.7077E-03    -33.3398E-03
             989               1     74.0948E-03     73.1668E-03    -34.5284E-03    -34.4752E-03
             990               1     68.8937E-03     68.0424E-03    -34.8001E-03    -34.6018E-03
             991               1     65.2493E-03     64.7387E-03    -34.3244E-03    -34.3419E-03
             992               1     62.4178E-03     61.9058E-03    -34.3069E-03    -34.2186E-03
             993               1     59.9095E-03     59.7353E-03    -33.7772E-03    -33.8295E-03
             994               1     58.8522E-03     58.6571E-03    -33.8032E-03    -33.7566E-03
             995               1     57.9837E-03     58.1579E-03    -33.4761E-03    -33.5646E-03
             996               1     58.7577E-03     58.8476E-03    -33.6850E-03    -33.6379E-03
             997               1     59.7021E-03     60.2497E-03    -33.5827E-03    -33.7380E-03
             998               1     62.2296E-03     62.5444E-03    -34.0302E-03    -33.9387E-03
             999               1     64.8805E-03     65.7631E-03    -34.0830E-03    -34.3483E-03
            1000               1     68.8324E-03     69.2870E-03    -34.7369E-03    -34.5161E-03
            1001               1     73.2803E-03     74.2200E-03    -34.7955E-03    -35.1461E-03
            1002               1     78.0947E-03     78.6555E-03    -35.2202E-03    -34.7823E-03
            1003               1     85.8508E-03     85.7204E-03    -35.1045E-03    -35.0640E-03
            1004               1     114.313E-03     111.939E-03    -10.6927E-03    -10.8447E-03
            1005               1     109.561E-03     107.772E-03    -31.8949E-03    -31.5564E-03
            1006               1     86.1521E-03     84.8239E-03    -33.5195E-03    -32.9528E-03
            1007               1     78.0219E-03     76.9186E-03    -32.7034E-03    -32.6700E-03
            1008               1     70.9468E-03     69.8262E-03    -33.4539E-03    -33.1736E-03
            1009               1     65.5722E-03     64.7951E-03    -32.4669E-03    -32.4776E-03
            1010               1     62.1827E-03     61.4146E-03    -32.7533E-03    -32.6384E-03
            1011               1     58.6833E-03     58.2441E-03    -32.0297E-03    -32.0623E-03
            1012               1     57.0447E-03     56.6556E-03    -32.1693E-03    -32.1227E-03
            1013               1     55.2511E-03     55.1964E-03    -31.7061E-03    -31.7607E-03
            1014               1     55.2646E-03     55.2480E-03    -31.9061E-03    -31.8770E-03
            1015               1     55.2833E-03     55.6482E-03    -31.6869E-03    -31.7823E-03
            1016               1     57.0447E-03     57.3442E-03    -32.0707E-03    -32.0244E-03
            1017               1     58.8030E-03     59.5783E-03    -32.0413E-03    -32.2199E-03
            1018               1     62.2350E-03     62.7167E-03    -32.7056E-03    -32.5740E-03
            1019               1     65.5667E-03     66.6783E-03    -32.7480E-03    -33.0660E-03
            1020               1     70.6414E-03     71.0871E-03    -33.8323E-03    -33.4156E-03
            1021               1     76.0598E-03     77.2524E-03    -33.7625E-03    -34.2027E-03
            1022               1     83.1318E-03     83.2533E-03    -35.3786E-03    -34.2175E-03
            1023               1     146.173E-03     146.525E-03    -27.7108E-03    -27.5493E-03
            1024               1     101.673E-03     100.788E-03    -35.3474E-03    -34.6456E-03
            1025               1     83.1355E-03     82.1966E-03    -29.4679E-03    -29.5815E-03
            1026               1     74.4162E-03     73.2304E-03    -31.4865E-03    -31.2288E-03
            1027               1     66.0916E-03     65.0740E-03    -29.7009E-03    -29.7437E-03
            1028               1     62.2096E-03     61.2060E-03    -30.5816E-03    -30.4871E-03
            1029               1     57.4894E-03     56.7215E-03    -29.7160E-03    -29.7375E-03
            1030               1     55.3784E-03     54.7383E-03    -30.1114E-03    -30.0777E-03
            1031               1     52.6849E-03     52.3159E-03    -29.5755E-03    -29.5962E-03
            1032               1     52.0005E-03     51.7972E-03    -29.8262E-03    -29.8117E-03
            1033               1     51.1389E-03     51.2304E-03    -29.5248E-03    -29.5549E-03
            1034               1     52.0615E-03     52.2929E-03    -29.8305E-03    -29.8165E-03
            1035               1     53.0144E-03     53.5420E-03    -29.7339E-03    -29.7898E-03
            1036               1     55.5928E-03     56.1615E-03    -30.2126E-03    -30.1774E-03
            1037               1     58.1481E-03     59.0110E-03    -30.2431E-03    -30.3565E-03
            1038               1     62.3547E-03     63.0867E-03    -31.0233E-03    -30.8992E-03
            1039               1     66.3536E-03     67.4580E-03    -30.9995E-03    -31.2292E-03
            1040               1     72.6968E-03     73.4426E-03    -32.4794E-03    -32.0292E-03
            1041               1     78.8107E-03     80.3380E-03    -31.9722E-03    -32.3910E-03
            1042               1     64.3576E-03     74.2564E-03    -4.97587E-03    -8.30942E-03
            1043               1     68.6038E-03     72.9051E-03    -13.1394E-03    -14.3881E-03
            1044               1     75.3522E-03     77.1465E-03    -22.1578E-03    -22.4162E-03
            1045               1     76.3496E-03     77.5967E-03    -26.8892E-03    -27.2439E-03
            1046               1     78.7044E-03     79.1462E-03    -32.6915E-03    -32.7366E-03
            1047               1     77.6688E-03     78.0571E-03    -35.7398E-03    -35.8594E-03
            1048               1     78.6107E-03     78.7150E-03    -39.6221E-03    -39.6269E-03
            1049               1     77.1134E-03     77.2254E-03    -41.3146E-03    -41.3481E-03
            1050               1     77.9414E-03     77.9550E-03    -43.6700E-03    -43.6603E-03
            1051               1     77.0897E-03     77.1025E-03    -44.2461E-03    -44.2450E-03
            1052               1     78.5349E-03     78.4839E-03    -45.3237E-03    -45.2969E-03
            1053               1     78.8541E-03     78.7983E-03    -44.9083E-03    -44.8969E-03
            1054               1     81.1859E-03     80.9888E-03    -44.8558E-03    -44.7927E-03
            1055               1     82.5774E-03     82.4137E-03    -43.4230E-03    -43.4214E-03
            1056               1     85.5932E-03     85.0859E-03    -42.2576E-03    -42.1220E-03
            1057               1     87.4580E-03     87.1012E-03    -39.6292E-03    -39.6681E-03
            1058               1     90.6018E-03     89.5608E-03    -37.2517E-03    -36.9948E-03
            1059               1     91.9252E-03     91.2944E-03    -33.0610E-03    -33.2103E-03
            1060               1     94.4381E-03     92.7933E-03    -29.2990E-03    -28.9218E-03
            1061               1     81.9367E-03     75.7373E-03    -13.9981E-03    -14.8808E-03
            1062               1     85.6475E-03     86.9969E-03    -16.9209E-03    -18.7865E-03
            1063               1     83.7446E-03     85.3315E-03    -22.0014E-03    -23.1878E-03
            1064               1     84.6210E-03     85.2178E-03    -27.7864E-03    -28.1428E-03
            1065               1     81.5353E-03     82.3017E-03    -30.9329E-03    -31.4041E-03
            1066               1     80.5945E-03     80.7246E-03    -35.1511E-03    -35.2334E-03
            1067               1     77.0252E-03     77.2840E-03    -37.0397E-03    -37.2047E-03
            1068               1     76.0710E-03     76.0489E-03    -39.7668E-03    -39.7732E-03
            1069               1     73.4786E-03     73.5105E-03    -40.6405E-03    -40.6710E-03
            1070               1     73.6426E-03     73.5721E-03    -42.1219E-03    -42.0871E-03
            1071               1     73.0128E-03     72.9721E-03    -42.1355E-03    -42.1112E-03
            1072               1     74.9253E-03     74.7652E-03    -42.5962E-03    -42.5007E-03
            1073               1     76.3905E-03     76.3596E-03    -41.7651E-03    -41.7350E-03
            1074               1     80.0441E-03     79.6694E-03    -41.3194E-03    -41.1070E-03
            1075               1     82.9842E-03     83.0255E-03    -39.5107E-03    -39.5302E-03
            1076               1     87.8110E-03     87.1290E-03    -38.1450E-03    -37.7463E-03
            1077               1     91.1945E-03     91.4073E-03    -35.1227E-03    -35.2745E-03
            1078               1     96.3078E-03     95.5303E-03    -32.6835E-03    -32.1458E-03
            1079               1     98.7791E-03     99.4606E-03    -28.2379E-03    -28.6559E-03
            1080               1     85.5945E-03     85.3361E-03    -12.6447E-03    -11.9984E-03
            1081               1     94.1267E-03     91.1695E-03    -20.7726E-03    -20.9424E-03
            1082               1     93.7893E-03     93.4664E-03    -24.2333E-03    -25.0756E-03
            1083               1     90.0718E-03     90.4343E-03    -27.8958E-03    -28.5917E-03
            1084               1     87.7053E-03     87.5932E-03    -32.0406E-03    -32.2948E-03
            1085               1     82.2461E-03     82.5262E-03    -34.0581E-03    -34.3944E-03
            1086               1     79.3473E-03     79.2077E-03    -36.9869E-03    -37.0532E-03
            1087               1     74.4531E-03     74.4944E-03    -37.9777E-03    -38.0851E-03
            1088               1     72.6127E-03     72.4903E-03    -39.6830E-03    -39.6768E-03
            1089               1     70.0760E-03     70.0204E-03    -39.9436E-03    -39.9408E-03
            1090               1     70.5385E-03     70.4300E-03    -40.7101E-03    -40.6444E-03
            1091               1     71.1298E-03     71.1363E-03    -40.3402E-03    -40.2996E-03
            1092               1     74.3650E-03     74.1852E-03    -40.3743E-03    -40.2118E-03
            1093               1     77.6091E-03     77.8360E-03    -39.2940E-03    -39.2808E-03
            1094               1     83.1108E-03     82.7793E-03    -38.6400E-03    -38.3226E-03
            1095               1     87.7981E-03     88.4160E-03    -36.6475E-03    -36.7519E-03
            1096               1     94.4296E-03     94.1222E-03    -35.1560E-03    -34.7228E-03
            1097               1     99.2740E-03     100.399E-03    -32.1417E-03    -32.4508E-03
            1098               1     105.393E-03     106.020E-03    -29.2351E-03    -29.3066E-03
            1099               1     97.9157E-03     94.8323E-03    -11.5244E-03    -11.8690E-03
            1100               1     97.9524E-03     96.8497E-03    -19.6861E-03    -19.5358E-03
            1101               1     99.2833E-03     97.5634E-03    -25.4690E-03    -25.6268E-03
            1102               1     96.4801E-03     95.6287E-03    -29.4520E-03    -29.7870E-03
            1103               1     90.6898E-03     90.4962E-03    -32.0254E-03    -32.3959E-03
            1104               1     86.4986E-03     86.0119E-03    -35.1217E-03    -35.2538E-03
            1105               1     79.6037E-03     79.5156E-03    -36.2103E-03    -36.3845E-03
            1106               1     75.7455E-03     75.4568E-03    -38.0189E-03    -38.0548E-03
            1107               1     70.7863E-03     70.6537E-03    -38.3608E-03    -38.3944E-03
            1108               1     69.0648E-03     68.9333E-03    -39.2312E-03    -39.2136E-03
            1109               1     67.8008E-03     67.7587E-03    -39.1259E-03    -39.0949E-03
            1110               1     69.5229E-03     69.4951E-03    -39.4003E-03    -39.3213E-03
            1111               1     72.1172E-03     72.3610E-03    -38.8663E-03    -38.8306E-03
            1112               1     77.2382E-03     77.2160E-03    -38.6742E-03    -38.4967E-03
            1113               1     82.4202E-03     83.1662E-03    -37.5330E-03    -37.5804E-03
            1114               1     89.7417E-03     89.7410E-03    -36.7671E-03    -36.4860E-03
            1115               1     95.9288E-03     97.2682E-03    -34.7756E-03    -35.0181E-03
            1116               1     103.540E-03     104.044E-03    -32.9765E-03    -32.8595E-03
            1117               1     109.781E-03     110.898E-03    -30.2589E-03    -30.6420E-03
            1118               1     105.138E-03     103.596E-03    -10.6567E-03    -9.99485E-03
            1119               1     106.013E-03     103.550E-03    -18.8781E-03    -18.8825E-03
            1120               1     103.540E-03     102.078E-03    -25.6009E-03    -25.5095E-03
            1121               1     99.8862E-03     98.5983E-03    -29.7574E-03    -29.8549E-03
            1122               1     95.2991E-03     94.2141E-03    -33.5065E-03    -33.6101E-03
            1123               1     87.3823E-03     86.8782E-03    -34.9835E-03    -35.1214E-03
            1124               1     82.1076E-03     81.4759E-03    -36.9495E-03    -37.0076E-03
            1125               1     74.8706E-03     74.5354E-03    -37.3150E-03    -37.3565E-03
            1126               1     70.8783E-03     70.5897E-03    -38.1367E-03    -38.1600E-03
            1127               1     67.1634E-03     66.9836E-03    -38.1174E-03    -38.0984E-03
            1128               1     66.5473E-03     66.5522E-03    -38.4061E-03    -38.4018E-03
            1129               1     67.5142E-03     67.6551E-03    -38.1976E-03    -38.1547E-03
            1130               1     71.1682E-03     71.3856E-03    -38.2117E-03    -38.1701E-03
            1131               1     76.0127E-03     76.6758E-03    -37.7335E-03    -37.7183E-03
            1132               1     83.0882E-03     83.3890E-03    -37.4575E-03    -37.3622E-03
            1133               1     89.9249E-03     91.2730E-03    -36.3941E-03    -36.5245E-03
            1134               1     98.5482E-03     99.0257E-03    -35.4593E-03    -35.3617E-03
            1135               1     105.871E-03     107.461E-03    -33.4319E-03    -33.7875E-03
            1136               1     113.149E-03     114.375E-03    -31.0400E-03    -31.1351E-03
            1137               1     116.545E-03     113.878E-03    -9.23019E-03    -9.12441E-03
            1138               1     111.906E-03     110.178E-03    -18.7301E-03    -18.2398E-03
            1139               1     109.006E-03     107.030E-03    -25.0798E-03    -25.0450E-03
            1140               1     104.402E-03     102.724E-03    -31.1209E-03    -30.9744E-03
            1141               1     96.3422E-03     95.1881E-03    -33.5555E-03    -33.5306E-03
            1142               1     90.3705E-03     89.2266E-03    -36.1293E-03    -36.1346E-03
            1143               1     81.2725E-03     80.5658E-03    -36.6071E-03    -36.5807E-03
            1144               1     75.4411E-03     74.8440E-03    -37.3247E-03    -37.3586E-03
            1145               1     69.2568E-03     68.8324E-03    -37.2877E-03    -37.2547E-03
            1146               1     66.0398E-03     65.9095E-03    -37.4034E-03    -37.4445E-03
            1147               1     64.6573E-03     64.6103E-03    -37.3160E-03    -37.2739E-03
            1148               1     65.9573E-03     66.2631E-03    -37.3007E-03    -37.3527E-03
            1149               1     69.5591E-03     70.0361E-03    -37.2317E-03    -37.1845E-03
            1150               1     75.3407E-03     75.9272E-03    -37.1741E-03    -37.2397E-03
            1151               1     82.1887E-03     83.3248E-03    -36.9302E-03    -36.9258E-03
            1152               1     90.9791E-03     91.6105E-03    -36.6391E-03    -36.6965E-03
            1153               1     99.0418E-03     100.809E-03    -35.6055E-03    -35.8228E-03
            1154               1     108.395E-03     109.193E-03    -34.3661E-03    -34.3396E-03
            1155               1     116.427E-03     117.668E-03    -31.6407E-03    -32.1204E-03
            1156               1     124.555E-03     123.136E-03    -8.90345E-03    -8.31223E-03
            1157               1     121.286E-03     118.838E-03    -17.7304E-03    -17.6259E-03
            1158               1     115.310E-03     113.285E-03    -27.0251E-03    -26.6031E-03
            1159               1     106.491E-03     104.828E-03    -30.9870E-03    -30.8379E-03
            1160               1     100.083E-03     98.3776E-03    -35.2066E-03    -35.0568E-03
            1161               1     89.0171E-03     87.8245E-03    -35.9501E-03    -35.7626E-03
            1162               1     81.8045E-03     80.7942E-03    -36.6139E-03    -36.6127E-03
            1163               1     73.4379E-03     72.6531E-03    -36.5500E-03    -36.4479E-03
            1164               1     67.8544E-03     67.4341E-03    -36.3507E-03    -36.4024E-03
            1165               1     63.9093E-03     63.5858E-03    -36.2535E-03    -36.1980E-03
            1166               1     62.3963E-03     62.5860E-03    -36.0156E-03    -36.1103E-03
            1167               1     63.9387E-03     64.1843E-03    -36.1102E-03    -36.0587E-03
            1168               1     67.5444E-03     68.2745E-03    -36.0208E-03    -36.1808E-03
            1169               1     73.6283E-03     74.4762E-03    -36.2946E-03    -36.2188E-03
            1170               1     81.3589E-03     82.3325E-03    -36.2821E-03    -36.5164E-03
            1171               1     89.8162E-03     91.2916E-03    -36.3980E-03    -36.3360E-03
            1172               1     100.201E-03     100.964E-03    -36.1281E-03    -36.3037E-03
            1173               1     109.232E-03     111.120E-03    -34.7977E-03    -35.1043E-03
            1174               1     119.183E-03     120.179E-03    -32.9990E-03    -32.7655E-03
            1175               1     138.341E-03     135.204E-03    -7.81489E-03    -7.56434E-03
            1176               1     130.144E-03     128.298E-03    -20.5652E-03    -19.9382E-03
            1177               1     120.277E-03     118.265E-03    -26.9039E-03    -26.7736E-03
            1178               1     112.740E-03     110.497E-03    -34.2525E-03    -33.8835E-03
            1179               1     97.9971E-03     96.3961E-03    -35.2158E-03    -34.8232E-03
            1180               1     89.4010E-03     87.9707E-03    -35.8344E-03    -35.7532E-03
            1181               1     78.9407E-03     77.7351E-03    -35.7782E-03    -35.5492E-03
            1182               1     71.3292E-03     70.5297E-03    -35.1354E-03    -35.1664E-03
            1183               1     65.0525E-03     64.3635E-03    -34.9925E-03    -34.8933E-03
            1184               1     60.7416E-03     60.6215E-03    -34.3893E-03    -34.4831E-03
            1185               1     59.7464E-03     59.7073E-03    -34.4868E-03    -34.4361E-03
            1186               1     60.6155E-03     61.2486E-03    -34.1868E-03    -34.3635E-03
            1187               1     65.0902E-03     65.6916E-03    -34.6426E-03    -34.5694E-03
            1188               1     70.9186E-03     72.0985E-03    -34.6226E-03    -34.9286E-03
            1189               1     79.0699E-03     80.1831E-03    -35.4063E-03    -35.2359E-03
            1190               1     88.5092E-03     89.7735E-03    -35.5057E-03    -35.9230E-03
            1191               1     98.3548E-03     99.9417E-03    -36.1114E-03    -35.8523E-03
            1192               1     110.872E-03     111.402E-03    -35.9933E-03    -36.1277E-03
            1193               1     121.202E-03     122.855E-03    -33.8556E-03    -34.3482E-03
            1194               1     148.772E-03     148.274E-03    -9.66140E-03    -9.11287E-03
            1195               1     141.532E-03     138.842E-03    -20.6605E-03    -20.6931E-03
            1196               1     131.676E-03     128.995E-03    -34.1305E-03    -33.5145E-03
            1197               1     109.213E-03     107.385E-03    -34.9563E-03    -34.2903E-03
            1198               1     98.3460E-03     96.6307E-03    -34.9239E-03    -34.7697E-03
            1199               1     85.4120E-03     83.8415E-03    -34.9019E-03    -34.5147E-03
            1200               1     75.8019E-03     74.6341E-03    -33.5882E-03    -33.5882E-03
            1201               1     67.5859E-03     66.4838E-03    -33.4498E-03    -33.2816E-03
            1202               1     60.7524E-03     60.2008E-03    -32.3738E-03    -32.4430E-03
            1203               1     57.2071E-03     56.7938E-03    -32.4295E-03    -32.3662E-03
            1204               1     55.1101E-03     55.4059E-03    -31.8133E-03    -31.9543E-03
            1205               1     57.2830E-03     57.6434E-03    -32.2424E-03    -32.1946E-03
            1206               1     60.7366E-03     61.8410E-03    -32.0494E-03    -32.3149E-03
            1207               1     67.7373E-03     68.6380E-03    -32.9761E-03    -32.8455E-03
            1208               1     75.4192E-03     76.9780E-03    -33.0839E-03    -33.5419E-03
            1209               1     85.2973E-03     86.4803E-03    -34.5545E-03    -34.1792E-03
            1210               1     96.3369E-03     97.7962E-03    -34.7949E-03    -35.3893E-03
            1211               1     107.800E-03     109.203E-03    -36.3147E-03    -35.5594E-03
            1212               1     123.972E-03     123.973E-03    -36.6944E-03    -36.6105E-03
            1213               1     173.946E-03     168.834E-03    -9.47242E-03    -9.49374E-03
            1214               1     162.301E-03     159.702E-03    -36.0812E-03    -35.0724E-03
            1215               1     124.180E-03     122.505E-03    -36.5774E-03    -35.5403E-03
            1216               1     108.775E-03     107.100E-03    -33.7706E-03    -33.6096E-03
            1217               1     92.9961E-03     91.2811E-03    -33.9280E-03    -33.4195E-03
            1218               1     80.9072E-03     79.4677E-03    -31.4893E-03    -31.4778E-03
            1219               1     71.1321E-03     69.6721E-03    -31.4815E-03    -31.2633E-03
            1220               1     62.0385E-03     61.0121E-03    -29.8526E-03    -29.8938E-03
            1221               1     56.2774E-03     55.4106E-03    -29.9171E-03    -29.8376E-03
            1222               1     51.2743E-03     51.0387E-03    -28.9473E-03    -29.0318E-03
            1223               1     50.7386E-03     50.7638E-03    -29.2882E-03    -29.2568E-03
            1224               1     51.4783E-03     52.2397E-03    -28.8564E-03    -29.0173E-03
            1225               1     56.5905E-03     57.3754E-03    -29.6454E-03    -29.5880E-03
            1226               1     62.3960E-03     63.8495E-03    -29.6315E-03    -29.9393E-03
            1227               1     71.3633E-03     72.4662E-03    -31.0611E-03    -30.8533E-03
            1228               1     80.4849E-03     82.2385E-03    -31.3106E-03    -31.8526E-03
            1229               1     91.9406E-03     93.0615E-03    -33.6670E-03    -33.0163E-03
            1230               1     104.483E-03     106.147E-03    -34.0234E-03    -34.7608E-03
            1231               1     118.312E-03     119.330E-03    -37.5305E-03    -35.8434E-03
            1232               1     210.197E-03     212.846E-03    -34.6414E-03    -33.4665E-03
            1233               1     146.376E-03     146.166E-03    -41.8706E-03    -40.6155E-03
            1234               1     119.527E-03     118.608E-03    -31.2956E-03    -31.3612E-03
            1235               1     102.096E-03     100.681E-03    -32.5047E-03    -32.0729E-03
            1236               1     86.5031E-03     84.9410E-03    -28.4533E-03    -28.4942E-03
            1237               1     75.6729E-03     74.0264E-03    -28.8364E-03    -28.6720E-03
            1238               1     64.4281E-03     62.9237E-03    -26.6654E-03    -26.6925E-03
            1239               1     56.9106E-03     55.5770E-03    -26.8461E-03    -26.7858E-03
            1240               1     49.2578E-03     48.3475E-03    -25.5586E-03    -25.5895E-03
            1241               1     45.9081E-03     45.4231E-03    -25.8393E-03    -25.8186E-03
            1242               1     43.5974E-03     43.7820E-03    -25.1665E-03    -25.2166E-03
            1243               1     46.1840E-03     46.7756E-03    -25.7563E-03    -25.7400E-03
            1244               1     49.9627E-03     51.0835E-03    -25.5843E-03    -25.6810E-03
            1245               1     57.4425E-03     58.6356E-03    -26.6596E-03    -26.6063E-03
            1246               1     65.2053E-03     66.6727E-03    -26.8776E-03    -27.0711E-03
            1247               1     75.5585E-03     76.8662E-03    -28.6906E-03    -28.4963E-03
            1248               1     85.8267E-03     87.3172E-03    -29.1227E-03    -29.5024E-03
            1249               1     98.7402E-03     100.060E-03    -32.3361E-03    -31.6779E-03
            1250               1     112.215E-03     114.014E-03    -32.5707E-03    -33.2350E-03
            1251               1     125.849E-03     137.894E-03     1.96716E-03    -2.42157E-03
            1252               1     110.099E-03     115.363E-03    -6.41502E-03    -8.24976E-03
            1253               1     110.504E-03     112.564E-03    -20.0192E-03    -20.3227E-03
            1254               1     104.409E-03     105.780E-03    -25.5749E-03    -26.1137E-03
            1255               1     102.332E-03     102.567E-03    -33.6835E-03    -33.7295E-03
            1256               1     96.1827E-03     96.3974E-03    -37.3555E-03    -37.5415E-03
            1257               1     93.8103E-03     93.6408E-03    -42.6545E-03    -42.6541E-03
            1258               1     88.6259E-03     88.5519E-03    -44.7009E-03    -44.7563E-03
            1259               1     87.6589E-03     87.5055E-03    -47.9088E-03    -47.8897E-03
            1260               1     85.0489E-03     85.0024E-03    -48.5541E-03    -48.5576E-03
            1261               1     86.7246E-03     86.6579E-03    -50.0413E-03    -49.9965E-03
            1262               1     87.5838E-03     87.6183E-03    -49.3907E-03    -49.3805E-03
            1263               1     92.1924E-03     92.0621E-03    -49.3662E-03    -49.2656E-03
            1264               1     96.0828E-03     96.0993E-03    -47.3464E-03    -47.3568E-03
            1265               1     102.913E-03     102.425E-03    -45.8571E-03    -45.6446E-03
            1266               1     108.500E-03     108.346E-03    -42.1893E-03    -42.2828E-03
            1267               1     116.505E-03     115.325E-03    -39.1542E-03    -38.7484E-03
            1268               1     122.176E-03     121.821E-03    -33.2307E-03    -33.5690E-03
            1269               1     130.673E-03     128.834E-03    -28.5333E-03    -27.9123E-03
            1270               1     139.570E-03     130.247E-03    -15.0572E-03    -16.1416E-03
            1271               1     136.011E-03     136.590E-03    -12.4366E-03    -14.9749E-03
            1272               1     121.209E-03     122.693E-03    -18.5900E-03    -20.2968E-03
            1273               1     116.572E-03     116.865E-03    -26.3859E-03    -26.8633E-03
            1274               1     106.360E-03     106.988E-03    -30.2319E-03    -30.9325E-03
            1275               1     100.702E-03     100.501E-03    -36.0082E-03    -36.1124E-03
            1276               1     91.6824E-03     91.7412E-03    -38.3405E-03    -38.5953E-03
            1277               1     87.1802E-03     86.8751E-03    -42.0872E-03    -42.0854E-03
            1278               1     80.9500E-03     80.8364E-03    -43.1503E-03    -43.2065E-03
            1279               1     79.6929E-03     79.4850E-03    -45.2053E-03    -45.1425E-03
            1280               1     78.2421E-03     78.2224E-03    -45.1423E-03    -45.1197E-03
            1281               1     81.5911E-03     81.4400E-03    -45.8120E-03    -45.6564E-03
            1282               1     85.1684E-03     85.3592E-03    -44.6016E-03    -44.5779E-03
            1283               1     92.6416E-03     92.3302E-03    -44.0549E-03    -43.7207E-03
            1284               1     99.5425E-03     99.9813E-03    -41.4883E-03    -41.5609E-03
            1285               1     109.591E-03     108.963E-03    -39.7445E-03    -39.1257E-03
            1286               1     117.740E-03     118.553E-03    -35.4634E-03    -35.8030E-03
            1287               1     129.110E-03     128.413E-03    -32.3699E-03    -31.5338E-03
            1288               1     136.676E-03     138.291E-03    -26.0630E-03    -26.9737E-03
            1289               1     138.645E-03     138.394E-03    -13.3429E-03    -12.6737E-03
            1290               1     143.950E-03     139.434E-03    -20.7989E-03    -21.0007E-03
            1291               1     136.367E-03     135.110E-03    -21.9170E-03    -23.1006E-03
            1292               1     123.615E-03     123.578E-03    -26.2434E-03    -27.2580E-03
            1293               1     115.440E-03     114.782E-03    -31.3658E-03    -31.7156E-03
            1294               1     103.050E-03     103.057E-03    -33.8606E-03    -34.3663E-03
            1295               1     95.1497E-03     94.5899E-03    -37.7823E-03    -37.8642E-03
            1296               1     84.7605E-03     84.5717E-03    -39.0375E-03    -39.2093E-03
            1297               1     79.4884E-03     79.0918E-03    -41.3937E-03    -41.3698E-03
            1298               1     74.0342E-03     73.8834E-03    -41.7023E-03    -41.7136E-03
            1299               1     74.1639E-03     73.9872E-03    -42.7923E-03    -42.6782E-03
            1300               1     75.6886E-03     75.8660E-03    -42.2354E-03    -42.1965E-03
            1301               1     82.1050E-03     82.0143E-03    -42.3226E-03    -42.0601E-03
            1302               1     89.2294E-03     89.9195E-03    -40.7727E-03    -40.7870E-03
            1303               1     100.042E-03     99.8629E-03    -39.9404E-03    -39.4415E-03
            1304               1     109.855E-03     111.203E-03    -37.1373E-03    -37.3540E-03
            1305               1     122.860E-03     122.740E-03    -35.2405E-03    -34.5668E-03
            1306               1     133.307E-03     135.377E-03    -31.1650E-03    -31.7232E-03
            1307               1     146.884E-03     147.708E-03    -27.4893E-03    -27.5972E-03
            1308               1     152.039E-03     147.435E-03    -12.3926E-03    -12.8764E-03
            1309               1     146.542E-03     144.867E-03    -19.4804E-03    -19.4416E-03
            1310               1     142.503E-03     139.744E-03    -25.1332E-03    -25.3584E-03
            1311               1     132.846E-03     131.120E-03    -28.3285E-03    -28.8282E-03
            1312               1     119.421E-03     118.730E-03    -31.2787E-03    -31.8278E-03
            1313               1     109.211E-03     108.093E-03    -34.9549E-03    -35.1370E-03
            1314               1     95.5153E-03     95.0792E-03    -36.3114E-03    -36.5800E-03
            1315               1     86.6112E-03     85.8791E-03    -38.6938E-03    -38.7308E-03
            1316               1     76.5968E-03     76.2270E-03    -39.1492E-03    -39.2138E-03
            1317               1     72.1957E-03     71.8639E-03    -40.3645E-03    -40.3208E-03
            1318               1     69.7082E-03     69.6964E-03    -40.2117E-03    -40.1853E-03
            1319               1     72.9872E-03     73.0350E-03    -40.6205E-03    -40.4817E-03
            1320               1     78.7138E-03     79.3756E-03    -39.8548E-03    -39.8279E-03
            1321               1     88.7711E-03     88.9704E-03    -39.6224E-03    -39.3319E-03
            1322               1     99.2152E-03     100.715E-03    -38.0308E-03    -38.1291E-03
            1323               1     112.932E-03     113.195E-03    -37.0624E-03    -36.6177E-03
            1324               1     125.049E-03     127.336E-03    -34.4630E-03    -34.8229E-03
            1325               1     139.686E-03     140.496E-03    -32.2705E-03    -32.0945E-03
            1326               1     152.610E-03     154.192E-03    -29.4171E-03    -29.7746E-03
            1327               1     157.825E-03     155.708E-03    -11.0671E-03    -10.3887E-03
            1328               1     155.484E-03     151.802E-03    -19.1467E-03    -19.1766E-03
            1329               1     146.796E-03     144.550E-03    -25.2675E-03    -25.2536E-03
            1330               1     136.968E-03     134.844E-03    -29.4696E-03    -29.6248E-03
            1331               1     125.687E-03     123.755E-03    -33.1087E-03    -33.2716E-03
            1332               1     110.422E-03     109.398E-03    -34.7572E-03    -34.9714E-03
            1333               1     99.1069E-03     97.8343E-03    -37.0281E-03    -37.1000E-03
            1334               1     85.3211E-03     84.6007E-03    -37.4941E-03    -37.5692E-03
            1335               1     76.6502E-03     75.9740E-03    -38.5548E-03    -38.5713E-03
            1336               1     69.1591E-03     68.8087E-03    -38.5537E-03    -38.5432E-03
            1337               1     67.5411E-03     67.5235E-03    -38.9655E-03    -38.9381E-03
            1338               1     69.8450E-03     70.2551E-03    -38.6862E-03    -38.6453E-03
            1339               1     77.2587E-03     77.7424E-03    -38.7245E-03    -38.6357E-03
            1340               1     87.0737E-03     88.4310E-03    -38.0702E-03    -38.0692E-03
            1341               1     100.348E-03     100.982E-03    -37.7326E-03    -37.5601E-03
            1342               1     113.269E-03     115.566E-03    -36.3931E-03    -36.5686E-03
            1343               1     128.851E-03     129.677E-03    -35.3028E-03    -35.1412E-03
            1344               1     142.723E-03     145.080E-03    -33.1123E-03    -33.4793E-03
            1345               1     156.568E-03     158.480E-03    -30.5815E-03    -30.7535E-03
            1346               1     170.233E-03     166.317E-03    -9.23019E-03    -9.12441E-03
            1347               1     160.544E-03     158.146E-03    -18.7301E-03    -18.2398E-03
            1348               1     153.068E-03     150.052E-03    -25.0798E-03    -25.0450E-03
            1349               1     141.899E-03     139.348E-03    -31.1209E-03    -30.9744E-03
            1350               1     126.895E-03     125.027E-03    -33.5555E-03    -33.5306E-03
            1351               1     114.358E-03     112.399E-03    -36.1293E-03    -36.1346E-03
            1352               1     97.9365E-03     96.7045E-03    -36.6071E-03    -36.5807E-03
            1353               1     86.2443E-03     85.0641E-03    -37.3247E-03    -37.3586E-03
            1354               1     74.2899E-03     73.4929E-03    -37.2877E-03    -37.2547E-03
            1355               1     67.4608E-03     67.1062E-03    -37.4034E-03    -37.4445E-03
            1356               1     64.6852E-03     64.6680E-03    -37.3159E-03    -37.2739E-03
            1357               1     67.4840E-03     68.0277E-03    -37.3007E-03    -37.3527E-03
            1358               1     74.9927E-03     76.0237E-03    -37.2317E-03    -37.1845E-03
            1359               1     86.2807E-03     87.2848E-03    -37.1741E-03    -37.2397E-03
            1360               1     99.1565E-03     101.185E-03    -36.9302E-03    -36.9258E-03
            1361               1     114.835E-03     115.849E-03    -36.6391E-03    -36.6965E-03
            1362               1     129.414E-03     132.118E-03    -35.6055E-03    -35.8228E-03
            1363               1     145.706E-03     147.006E-03    -34.3661E-03    -34.3396E-03
            1364               1     160.453E-03     162.066E-03    -31.6408E-03    -32.1204E-03
            1365               1     177.360E-03     175.355E-03    -8.49310E-03    -7.91842E-03
            1366               1     171.091E-03     167.436E-03    -17.4618E-03    -17.3318E-03
            1367               1     159.156E-03     156.327E-03    -27.3585E-03    -26.8590E-03
            1368               1     144.089E-03     141.575E-03    -31.2747E-03    -31.0680E-03
            1369               1     131.031E-03     128.423E-03    -35.6045E-03    -35.3954E-03
            1370               1     112.323E-03     110.502E-03    -36.1763E-03    -35.9127E-03
            1371               1     98.7382E-03     97.0008E-03    -36.5354E-03    -36.5203E-03
            1372               1     83.4730E-03     82.1617E-03    -36.3710E-03    -36.2352E-03
            1373               1     72.5217E-03     71.6423E-03    -35.9327E-03    -35.9911E-03
            1374               1     64.4733E-03     63.9007E-03    -35.8173E-03    -35.7533E-03
            1375               1     61.4493E-03     61.7048E-03    -35.4561E-03    -35.5740E-03
            1376               1     64.7171E-03     65.2993E-03    -35.6216E-03    -35.5681E-03
            1377               1     72.3254E-03     73.5255E-03    -35.5080E-03    -35.7152E-03
            1378               1     84.0119E-03     85.6268E-03    -35.9579E-03    -35.8679E-03
            1379               1     98.2455E-03     99.7008E-03    -36.0070E-03    -36.3185E-03
            1380               1     113.143E-03     115.587E-03    -36.3990E-03    -36.2919E-03
            1381               1     130.709E-03     131.853E-03    -36.2846E-03    -36.5242E-03
            1382               1     146.394E-03     149.072E-03    -35.1174E-03    -35.4124E-03
            1383               1     163.008E-03     164.665E-03    -33.4576E-03    -33.1470E-03
            1384               1     192.710E-03     188.072E-03    -6.94671E-03    -6.55688E-03
            1385               1     179.595E-03     177.147E-03    -20.7710E-03    -20.0324E-03
            1386               1     164.542E-03     161.517E-03    -27.2397E-03    -27.0420E-03
            1387               1     150.474E-03     147.281E-03    -35.3760E-03    -34.8422E-03
            1388               1     127.615E-03     125.362E-03    -35.9625E-03    -35.3913E-03
            1389               1     112.590E-03     110.383E-03    -36.0012E-03    -35.8701E-03
            1390               1     94.7040E-03     92.8924E-03    -35.6771E-03    -35.3537E-03
            1391               1     80.9192E-03     79.4936E-03    -34.4605E-03    -34.4904E-03
            1392               1     68.7286E-03     67.5554E-03    -34.2042E-03    -34.0739E-03
            1393               1     60.2170E-03     59.8627E-03    -33.2561E-03    -33.3759E-03
            1394               1     57.8882E-03     57.8871E-03    -33.4010E-03    -33.3458E-03
            1395               1     60.2107E-03     61.2474E-03    -32.9666E-03    -33.2031E-03
            1396               1     69.1403E-03     70.3475E-03    -33.6540E-03    -33.5721E-03
            1397               1     80.6583E-03     82.4254E-03    -33.6743E-03    -34.0934E-03
            1398               1     95.1281E-03     97.0982E-03    -34.9086E-03    -34.6872E-03
            1399               1     111.495E-03     113.233E-03    -35.2105E-03    -35.7912E-03
            1400               1     127.786E-03     130.339E-03    -36.4241E-03    -36.0476E-03
            1401               1     147.717E-03     148.548E-03    -36.6994E-03    -36.8926E-03
            1402               1     164.812E-03     166.968E-03    -34.6974E-03    -35.2156E-03
            1403               1     202.385E-03     201.837E-03    -8.96319E-03    -8.43754E-03
            1404               1     192.671E-03     188.519E-03    -20.6343E-03    -20.6348E-03
            1405               1     176.455E-03     172.794E-03    -36.4468E-03    -35.4895E-03
            1406               1     144.502E-03     142.106E-03    -36.6088E-03    -35.6240E-03
            1407               1     127.408E-03     124.976E-03    -35.5987E-03    -35.3490E-03
            1408               1     106.764E-03     104.604E-03    -35.0994E-03    -34.5429E-03
            1409               1     90.8070E-03     88.9623E-03    -32.7928E-03    -32.7772E-03
            1410               1     75.8443E-03     74.1244E-03    -32.3901E-03    -32.1573E-03
            1411               1     63.2160E-03     62.1410E-03    -30.6631E-03    -30.7500E-03
            1412               1     55.4648E-03     54.7386E-03    -30.6709E-03    -30.5934E-03
            1413               1     51.5200E-03     51.9479E-03    -29.7310E-03    -29.9205E-03
            1414               1     55.8422E-03     56.6099E-03    -30.3472E-03    -30.2977E-03
            1415               1     63.5465E-03     65.2781E-03    -30.1010E-03    -30.4667E-03
            1416               1     76.5208E-03     78.1513E-03    -31.4974E-03    -31.3394E-03
            1417               1     90.6551E-03     92.8007E-03    -31.7835E-03    -32.4230E-03
            1418               1     106.924E-03     108.946E-03    -34.0646E-03    -33.5771E-03
            1419               1     125.015E-03     126.887E-03    -34.7104E-03    -35.5453E-03
            1420               1     142.698E-03     145.038E-03    -37.2913E-03    -36.2869E-03
            1421               1     166.826E-03     166.972E-03    -38.4402E-03    -38.3199E-03
            1422               1     232.473E-03     224.479E-03    -8.41330E-03    -8.23301E-03
            1423               1     215.411E-03     212.105E-03    -40.5655E-03    -38.8841E-03
            1424               1     164.422E-03     162.468E-03    -39.9888E-03    -38.4312E-03
            1425               1     142.992E-03     140.839E-03    -35.1711E-03    -34.8891E-03
            1426               1     119.369E-03     117.195E-03    -34.6290E-03    -33.8912E-03
            1427               1     101.070E-03     99.0192E-03    -30.6323E-03    -30.5988E-03
            1428               1     84.4029E-03     82.3056E-03    -30.1806E-03    -29.8728E-03
            1429               1     68.9580E-03     67.2429E-03    -27.5323E-03    -27.5815E-03
            1430               1     57.2380E-03     55.7567E-03    -27.4074E-03    -27.3022E-03
            1431               1     47.4221E-03     46.8574E-03    -25.8639E-03    -25.9763E-03
            1432               1     45.5532E-03     45.6562E-03    -26.2813E-03    -26.2483E-03
            1433               1     48.0211E-03     49.3204E-03    -25.6406E-03    -25.8616E-03
            1434               1     58.2078E-03     59.6567E-03    -26.8089E-03    -26.7451E-03
            1435               1     69.9427E-03     72.0531E-03    -26.8960E-03    -27.3256E-03
            1436               1     85.2962E-03     87.0967E-03    -29.0834E-03    -28.8226E-03
            1437               1     100.996E-03     103.233E-03    -29.7111E-03    -30.4732E-03
            1438               1     118.589E-03     120.427E-03    -33.3262E-03    -32.4878E-03
            1439               1     138.128E-03     140.119E-03    -34.3370E-03    -35.3728E-03
            1440               1     157.815E-03     159.708E-03    -39.7054E-03    -37.5255E-03
            1441               1     273.170E-03     278.260E-03    -41.5844E-03    -39.3543E-03
            1442               1     191.487E-03     192.017E-03    -48.5950E-03    -46.7539E-03
            1443               1     157.637E-03     156.800E-03    -33.4342E-03    -33.4547E-03
            1444               1     132.838E-03     131.268E-03    -33.8190E-03    -33.2031E-03
            1445               1     111.190E-03     109.160E-03    -27.4613E-03    -27.5013E-03
            1446               1     93.8179E-03     91.6107E-03    -27.2207E-03    -26.9899E-03
            1447               1     76.3028E-03     74.0607E-03    -23.6329E-03    -23.6653E-03
            1448               1     62.2852E-03     60.1726E-03    -23.4598E-03    -23.3776E-03
            1449               1     48.2466E-03     46.5543E-03    -21.3197E-03    -21.3602E-03
            1450               1     40.0354E-03     39.0765E-03    -21.5313E-03    -21.5060E-03
            1451               1     35.4517E-03     35.7870E-03    -20.4488E-03    -20.5170E-03
            1452               1     40.9118E-03     42.1127E-03    -21.2739E-03    -21.2564E-03
            1453               1     49.8778E-03     51.7396E-03    -21.0739E-03    -21.2080E-03
            1454               1     63.7585E-03     65.6604E-03    -22.7363E-03    -22.6708E-03
            1455               1     77.9585E-03     79.9283E-03    -23.2780E-03    -23.5486E-03
            1456               1     94.4690E-03     96.3076E-03    -26.1305E-03    -25.8816E-03
            1457               1     111.070E-03     112.770E-03    -27.2202E-03    -27.7488E-03
            1458               1     129.748E-03     131.540E-03    -32.1664E-03    -31.3192E-03
            1459               1     149.895E-03     151.793E-03    -33.3363E-03    -34.2445E-03
            1460               1     185.078E-03     196.023E-03     10.2356E-03     5.81545E-03
            1461               1     154.537E-03     159.007E-03     314.220E-06    -1.63459E-03
            1462               1     150.037E-03     151.306E-03    -16.5380E-03    -16.8318E-03
            1463               1     138.734E-03     139.460E-03    -25.5083E-03    -25.9839E-03
            1464               1     130.203E-03     129.883E-03    -33.7950E-03    -33.8442E-03
            1465               1     120.391E-03     120.135E-03    -40.3376E-03    -40.4639E-03
            1466               1     110.469E-03     109.922E-03    -44.6156E-03    -44.5881E-03
            1467               1     102.634E-03     102.320E-03    -48.5052E-03    -48.5519E-03
            1468               1     95.5079E-03     95.1435E-03    -50.5070E-03    -50.4545E-03
            1469               1     92.2864E-03     92.2239E-03    -52.3059E-03    -52.3431E-03
            1470               1     91.5125E-03     91.4204E-03    -52.7934E-03    -52.7269E-03
            1471               1     94.9783E-03     95.2182E-03    -52.9852E-03    -53.0237E-03
            1472               1     101.182E-03     101.220E-03    -52.1492E-03    -52.0503E-03
            1473               1     110.192E-03     110.566E-03    -50.8090E-03    -50.8318E-03
            1474               1     120.988E-03     120.847E-03    -48.4547E-03    -48.2958E-03
            1475               1     132.571E-03     132.784E-03    -45.1632E-03    -45.1546E-03
            1476               1     145.493E-03     144.686E-03    -40.9058E-03    -40.6097E-03
            1477               1     156.718E-03     156.697E-03    -34.5270E-03    -34.6864E-03
            1478               1     170.819E-03     169.011E-03    -28.2799E-03    -27.6689E-03
            1479               1     192.618E-03     181.734E-03    -14.0261E-03    -14.8778E-03
            1480               1     189.729E-03     188.636E-03    -6.87231E-03    -9.50293E-03
            1481               1     163.908E-03     164.448E-03    -16.8434E-03    -18.3705E-03
            1482               1     154.218E-03     153.714E-03    -24.5111E-03    -25.0381E-03
            1483               1     137.867E-03     137.595E-03    -31.7297E-03    -32.2304E-03
            1484               1     123.835E-03     123.090E-03    -36.2467E-03    -36.2901E-03
            1485               1     110.383E-03     109.840E-03    -40.5611E-03    -40.7424E-03
            1486               1     97.5697E-03     96.7858E-03    -42.8974E-03    -42.7857E-03
            1487               1     88.3257E-03     88.0302E-03    -45.0127E-03    -45.1259E-03
            1488               1     82.0047E-03     81.5087E-03    -46.0129E-03    -45.8553E-03
            1489               1     80.8716E-03     81.1213E-03    -46.6590E-03    -46.7767E-03
            1490               1     84.5108E-03     84.4389E-03    -46.6336E-03    -46.4155E-03
            1491               1     92.4801E-03     93.1648E-03    -46.0755E-03    -46.1951E-03
            1492               1     103.952E-03     104.139E-03    -44.9841E-03    -44.6554E-03
            1493               1     117.381E-03     118.161E-03    -43.1288E-03    -43.1832E-03
            1494               1     132.707E-03     132.986E-03    -40.5707E-03    -40.1271E-03
            1495               1     147.735E-03     148.733E-03    -36.8783E-03    -36.8491E-03
            1496               1     165.127E-03     165.288E-03    -32.2678E-03    -31.7852E-03
            1497               1     178.183E-03     180.689E-03    -25.7662E-03    -26.2627E-03
            1498               1     192.157E-03     190.644E-03    -11.3310E-03    -10.6211E-03
            1499               1     195.400E-03     189.991E-03    -21.4688E-03    -21.1946E-03
            1500               1     184.881E-03     182.311E-03    -19.4751E-03    -20.8155E-03
            1501               1     163.942E-03     162.750E-03    -28.2344E-03    -28.8684E-03
            1502               1     146.916E-03     145.600E-03    -31.0193E-03    -31.3257E-03
            1503               1     128.878E-03     127.889E-03    -35.8316E-03    -36.1392E-03
            1504               1     110.800E-03     109.639E-03    -37.5372E-03    -37.4547E-03
            1505               1     95.7583E-03     95.0357E-03    -39.5710E-03    -39.7510E-03
            1506               1     82.5663E-03     81.6086E-03    -40.5031E-03    -40.3251E-03
            1507               1     74.4194E-03     74.3284E-03    -41.2199E-03    -41.3835E-03
            1508               1     72.0754E-03     71.7266E-03    -41.5736E-03    -41.3392E-03
            1509               1     76.0164E-03     76.7954E-03    -41.4759E-03    -41.6634E-03
            1510               1     85.9240E-03     86.2623E-03    -41.2639E-03    -40.9286E-03
            1511               1     99.3274E-03     100.571E-03    -40.4463E-03    -40.6307E-03
            1512               1     115.655E-03     116.519E-03    -39.4205E-03    -38.9785E-03
            1513               1     133.258E-03     134.716E-03    -37.7937E-03    -37.8566E-03
            1514               1     152.248E-03     153.653E-03    -35.1030E-03    -34.8662E-03
            1515               1     170.285E-03     172.653E-03    -32.3704E-03    -32.1907E-03
            1516               1     191.115E-03     192.630E-03    -26.6753E-03    -27.7491E-03
            1517               1     204.982E-03     200.194E-03    -11.5545E-03    -11.7568E-03
            1518               1     201.435E-03     198.169E-03    -18.4474E-03    -18.6038E-03
            1519               1     192.199E-03     188.296E-03    -29.7003E-03    -29.2778E-03
            1520               1     173.128E-03     170.613E-03    -28.8832E-03    -29.4119E-03
            1521               1     153.552E-03     151.535E-03    -35.0313E-03    -35.2033E-03
            1522               1     130.806E-03     129.098E-03    -34.8753E-03    -34.8259E-03
            1523               1     111.980E-03     110.682E-03    -36.5073E-03    -36.7105E-03
            1524               1     93.0453E-03     91.6034E-03    -36.6363E-03    -36.4623E-03
            1525               1     78.2672E-03     77.5643E-03    -36.9516E-03    -37.1424E-03
            1526               1     67.8357E-03     66.9666E-03    -37.1524E-03    -36.9391E-03
            1527               1     64.2535E-03     64.7111E-03    -37.0607E-03    -37.2794E-03
            1528               1     69.1449E-03     69.3790E-03    -37.2280E-03    -36.9456E-03
            1529               1     79.9279E-03     81.4188E-03    -36.9203E-03    -37.1964E-03
            1530               1     95.6676E-03     96.7648E-03    -36.9369E-03    -36.5543E-03
            1531               1     113.720E-03     115.621E-03    -36.4822E-03    -36.7737E-03
            1532               1     133.371E-03     135.276E-03    -35.8796E-03    -35.5503E-03
            1533               1     154.678E-03     156.689E-03    -35.4630E-03    -35.4785E-03
            1534               1     175.699E-03     178.440E-03    -32.4748E-03    -33.2384E-03
            1535               1     197.089E-03     199.106E-03    -32.3274E-03    -31.2521E-03
            1536               1     218.442E-03     213.281E-03    -9.18104E-03    -8.33790E-03
            1537               1     212.050E-03     207.992E-03    -24.7030E-03    -24.0087E-03
            1538               1     196.038E-03     192.750E-03    -28.0949E-03    -28.2774E-03
            1539               1     180.735E-03     176.979E-03    -37.6969E-03    -37.1941E-03
            1540               1     152.348E-03     149.972E-03    -35.0340E-03    -34.8408E-03
            1541               1     132.263E-03     130.180E-03    -35.9400E-03    -36.0147E-03
            1542               1     109.137E-03     107.172E-03    -34.5897E-03    -34.3829E-03
            1543               1     90.2637E-03     88.8655E-03    -34.0179E-03    -34.1995E-03
            1544               1     73.1640E-03     71.6509E-03    -33.5392E-03    -33.3485E-03
            1545               1     61.1439E-03     60.7897E-03    -32.9894E-03    -33.2058E-03
            1546               1     57.2739E-03     57.0154E-03    -33.0283E-03    -32.8089E-03
            1547               1     61.8287E-03     63.1855E-03    -32.7375E-03    -33.0261E-03
            1548               1     74.6513E-03     75.7796E-03    -33.1640E-03    -32.8755E-03
            1549               1     91.2338E-03     93.4346E-03    -33.1809E-03    -33.5896E-03
            1550               1     110.704E-03     112.668E-03    -33.8780E-03    -33.5384E-03
            1551               1     132.135E-03     134.521E-03    -34.4124E-03    -34.8557E-03
            1552               1     153.337E-03     156.328E-03    -34.7144E-03    -34.6456E-03
            1553               1     178.681E-03     180.063E-03    -36.3857E-03    -36.0953E-03
            1554               1     199.262E-03     202.928E-03    -33.1126E-03    -34.8157E-03
            1555               1     230.946E-03     229.359E-03    -11.0814E-03    -10.6880E-03
            1556               1     223.400E-03     218.472E-03    -22.9434E-03    -22.9206E-03
            1557               1     209.431E-03     204.600E-03    -41.0126E-03    -39.9152E-03
            1558               1     172.143E-03     169.423E-03    -37.8740E-03    -37.0931E-03
            1559               1     152.676E-03     149.786E-03    -37.1565E-03    -36.9444E-03
            1560               1     126.266E-03     123.808E-03    -34.2548E-03    -33.8986E-03
            1561               1     105.637E-03     103.556E-03    -32.2347E-03    -32.3467E-03
            1562               1     84.7022E-03     82.5669E-03    -30.7391E-03    -30.5469E-03
            1563               1     67.0116E-03     65.6474E-03    -29.3165E-03    -29.5028E-03
            1564               1     54.0892E-03     52.9130E-03    -28.8212E-03    -28.6547E-03
            1565               1     48.8076E-03     49.3837E-03    -28.1416E-03    -28.3837E-03
            1566               1     54.9434E-03     55.8539E-03    -28.4384E-03    -28.2381E-03
            1567               1     68.0118E-03     70.2513E-03    -28.4483E-03    -28.8174E-03
            1568               1     86.1690E-03     88.1518E-03    -29.5275E-03    -29.2748E-03
            1569               1     106.243E-03     108.941E-03    -30.2896E-03    -30.8666E-03
            1570               1     127.410E-03     130.060E-03    -32.1916E-03    -31.8888E-03
            1571               1     151.214E-03     153.631E-03    -34.0412E-03    -34.6824E-03
            1572               1     172.539E-03     176.228E-03    -36.2676E-03    -35.9246E-03
            1573               1     202.519E-03     202.534E-03    -39.6417E-03    -39.0969E-03
            1574               1     263.545E-03     253.838E-03    -9.89428E-03    -9.45690E-03
            1575               1     249.401E-03     244.921E-03    -46.3855E-03    -44.4762E-03
            1576               1     192.368E-03     189.855E-03    -43.6111E-03    -41.9476E-03
            1577               1     170.563E-03     167.582E-03    -38.3508E-03    -38.0057E-03
            1578               1     141.904E-03     139.227E-03    -35.0828E-03    -34.4775E-03
            1579               1     120.509E-03     117.855E-03    -30.8613E-03    -30.8713E-03
            1580               1     98.0541E-03     95.3968E-03    -28.4497E-03    -28.2368E-03
            1581               1     77.8157E-03     75.5277E-03    -25.8328E-03    -25.9595E-03
            1582               1     59.4922E-03     57.3171E-03    -24.5899E-03    -24.4703E-03
            1583               1     44.9436E-03     43.9708E-03    -23.2361E-03    -23.3992E-03
            1584               1     39.9677E-03     40.0327E-03    -23.0381E-03    -22.9153E-03
            1585               1     45.9978E-03     47.9042E-03    -22.7272E-03    -22.9611E-03
            1586               1     61.1727E-03     63.2780E-03    -23.5585E-03    -23.4074E-03
            1587               1     79.5034E-03     82.2508E-03    -24.2212E-03    -24.6251E-03
            1588               1     99.9657E-03     102.546E-03    -26.2556E-03    -26.0572E-03
            1589               1     121.581E-03     124.364E-03    -27.9596E-03    -28.6538E-03
            1590               1     143.173E-03     146.072E-03    -31.6654E-03    -31.1949E-03
            1591               1     168.142E-03     170.420E-03    -34.4429E-03    -35.3975E-03
            1592               1     190.034E-03     193.369E-03    -40.3877E-03    -38.5686E-03
            1593               1     310.183E-03     315.304E-03    -47.6890E-03    -45.1344E-03
            1594               1     220.121E-03     220.092E-03    -54.8550E-03    -52.7340E-03
            1595               1     184.850E-03     183.131E-03    -37.7136E-03    -37.7156E-03
            1596               1     156.576E-03     154.219E-03    -35.8519E-03    -35.2335E-03
            1597               1     132.928E-03     129.952E-03    -28.6586E-03    -28.6929E-03
            1598               1     110.879E-03     107.862E-03    -25.9695E-03    -25.7915E-03
            1599               1     89.7152E-03     86.5913E-03    -22.0314E-03    -22.0837E-03
            1600               1     69.5668E-03     66.5804E-03    -20.0643E-03    -20.0034E-03
            1601               1     50.3621E-03     47.7429E-03    -17.9107E-03    -17.9711E-03
            1602               1     34.9430E-03     33.1676E-03    -17.0308E-03    -16.9890E-03
            1603               1     28.1734E-03     28.7506E-03    -16.2132E-03    -16.2856E-03
            1604               1     36.7182E-03     38.9166E-03    -16.4582E-03    -16.4108E-03
            1605               1     52.9454E-03     55.7179E-03    -16.8310E-03    -16.9507E-03
            1606               1     72.2654E-03     75.2497E-03    -18.3081E-03    -18.2467E-03
            1607               1     92.6522E-03     95.3575E-03    -19.8562E-03    -20.0943E-03
            1608               1     113.483E-03     116.362E-03    -22.9390E-03    -22.7971E-03
            1609               1     135.242E-03     137.385E-03    -25.5672E-03    -26.0710E-03
            1610               1     157.064E-03     159.701E-03    -31.3435E-03    -30.6671E-03
            1611               1     181.568E-03     183.466E-03    -34.3021E-03    -35.2686E-03
            1612               1     4.84769E-15     3.22389E-15     207.821E-18    -207.821E-18
            1613               1     628.066E-18     636.185E-18    -148.939E-18     148.939E-18
            1614               1     2.41329E-15     2.15071E-15     50.8008E-18    -50.8008E-18
            1615               1     3.75456E-15     3.03088E-15    -1.75758E-15    -1.29345E-15
            1616               1     2.93491E-15     2.46524E-15    -1.66406E-15    -1.38697E-15
            1617               1     3.73303E-15     3.35953E-15    -1.34425E-15    -1.70678E-15
            1618               1     52.6741E-03     51.2109E-03    -29.8975E-03    -29.2443E-03
            1619               1     43.7717E-03     44.4533E-03    -25.2495E-03    -25.6125E-03
            1620               1     53.3591E-03     53.7346E-03    -30.2216E-03    -30.4036E-03
            1621               1     44.0091E-03     44.8910E-03    -25.2285E-03    -25.6544E-03
            1622               1     52.9468E-03     53.6195E-03    -29.5832E-03    -29.9174E-03
            1623               1     44.2481E-03     44.0239E-03    -24.4792E-03    -24.5307E-03
            1624               1     53.8496E-03     54.3239E-03    -29.3609E-03    -29.6992E-03
            1625               1     46.2666E-03     46.5870E-03    -24.7060E-03    -24.6606E-03
            1626               1     55.8195E-03     56.1609E-03    -29.9178E-03    -29.9610E-03
            1627               1     49.4446E-03     48.7878E-03    -24.8775E-03    -24.8192E-03
            1628               1     58.4004E-03     59.1334E-03    -30.4790E-03    -31.0572E-03
            1629               1     52.7818E-03     53.8071E-03    -25.6258E-03    -25.4421E-03
            1630               1     62.8475E-03     62.7114E-03    -32.7066E-03    -32.6305E-03
            1631               1     60.1330E-03     58.8301E-03    -27.4243E-03    -27.8200E-03
            1632               1     61.4633E-03     61.1392E-03    -32.7110E-03    -31.6311E-03
            1633               1     63.9528E-03     66.2809E-03    -28.8324E-03    -28.4570E-03
            1634               1     62.9514E-03     61.5120E-03    -26.4774E-03    -26.3169E-03
            1635               1     53.6897E-03     54.4560E-03    -21.0531E-03    -22.1392E-03
            1636               1     67.1240E-03     67.8216E-03    -27.1419E-03    -27.5293E-03
            1637               1     60.8243E-03     60.7693E-03    -22.4136E-03    -22.9112E-03
            1638               1     71.0545E-03     71.5448E-03    -27.7920E-03    -28.0118E-03
            1639               1     66.3729E-03     66.9579E-03    -22.4499E-03    -22.8045E-03
            1640               1     74.6145E-03     75.3974E-03    -27.7697E-03    -28.2552E-03
            1641               1     72.2290E-03     72.5244E-03    -23.2561E-03    -23.3910E-03
            1642               1     78.2511E-03     78.8002E-03    -28.5943E-03    -28.5119E-03
            1643               1     77.3708E-03     77.2268E-03    -23.3777E-03    -23.4951E-03
            1644               1     81.8243E-03     82.3540E-03    -28.6613E-03    -29.1453E-03
            1645               1     81.9581E-03     83.1313E-03    -24.0778E-03    -23.9265E-03
            1646               1     85.8625E-03     86.5701E-03    -30.2964E-03    -29.8897E-03
            1647               1     88.5307E-03     87.1209E-03    -24.8509E-03    -24.7948E-03
            1648               1     90.2843E-03     90.7753E-03    -31.4689E-03    -32.1959E-03
            1649               1     92.7338E-03     95.8892E-03    -26.6656E-03    -26.2285E-03
            1650               1     95.4823E-03     95.1618E-03    -35.4646E-03    -35.0525E-03
            1651               1     103.364E-03     99.0794E-03    -29.8753E-03    -30.2822E-03
            1652               1     89.9820E-03     91.1093E-03    -35.8659E-03    -34.2467E-03
            1653               1     106.273E-03     110.843E-03    -32.8802E-03    -31.5845E-03
            1654               1     93.2798E-03     92.6994E-03    -22.5836E-03    -23.0684E-03
            1655               1     93.3719E-03     96.0390E-03    -16.3347E-03    -18.2936E-03
            1656               1     102.927E-03     103.857E-03    -23.8173E-03    -24.3327E-03
            1657               1     104.801E-03     101.897E-03    -19.2855E-03    -19.8449E-03
            1658               1     110.093E-03     110.230E-03    -25.9205E-03    -26.2754E-03
            1659               1     111.059E-03     113.674E-03    -20.5734E-03    -21.1022E-03
            1660               1     114.517E-03     116.249E-03    -26.5960E-03    -26.9845E-03
            1661               1     119.794E-03     118.760E-03    -22.1804E-03    -22.6045E-03
            1662               1     120.078E-03     120.326E-03    -27.5381E-03    -27.9270E-03
            1663               1     123.840E-03     125.724E-03    -22.3958E-03    -22.4563E-03
            1664               1     123.173E-03     124.801E-03    -28.2259E-03    -28.0967E-03
            1665               1     131.540E-03     130.639E-03    -23.2448E-03    -23.4035E-03
            1666               1     128.404E-03     128.570E-03    -28.9177E-03    -29.3363E-03
            1667               1     134.719E-03     137.347E-03    -24.1769E-03    -23.9502E-03
            1668               1     131.691E-03     133.503E-03    -31.0842E-03    -30.4172E-03
            1669               1     143.022E-03     140.554E-03    -25.3725E-03    -25.2387E-03
            1670               1     136.896E-03     137.031E-03    -33.0411E-03    -33.8369E-03
            1671               1     145.700E-03     151.071E-03    -28.2668E-03    -27.5486E-03
            1672               1     140.877E-03     140.734E-03    -38.7619E-03    -38.0685E-03
            1673               1     158.019E-03     150.763E-03    -32.9091E-03    -33.2948E-03
            1674               1     130.333E-03     132.582E-03    -39.7172E-03    -37.4638E-03
            1675               1     158.510E-03     165.457E-03    -37.6603E-03    -35.3617E-03
            1676               1     134.317E-03     134.645E-03    -18.5737E-03    -19.6992E-03
            1677               1     144.939E-03     149.913E-03    -11.3436E-03    -14.2990E-03
            1678               1     149.532E-03     150.708E-03    -20.3196E-03    -21.1180E-03
            1679               1     159.520E-03     153.716E-03    -16.0970E-03    -16.6970E-03
            1680               1     158.800E-03     158.664E-03    -24.2540E-03    -24.5056E-03
            1681               1     165.152E-03     169.803E-03    -18.7729E-03    -19.5934E-03
            1682               1     163.600E-03     166.355E-03    -25.5456E-03    -26.1811E-03
            1683               1     175.836E-03     173.848E-03    -21.4334E-03    -21.9880E-03
            1684               1     170.313E-03     170.441E-03    -27.2152E-03    -27.5972E-03
            1685               1     179.191E-03     182.248E-03    -21.9790E-03    -22.1067E-03
            1686               1     173.024E-03     175.594E-03    -28.2259E-03    -28.0967E-03
            1687               1     188.201E-03     186.775E-03    -23.2448E-03    -23.4035E-03
            1688               1     179.007E-03     179.061E-03    -29.2405E-03    -29.6661E-03
            1689               1     190.365E-03     194.173E-03    -24.5938E-03    -24.2999E-03
            1690               1     181.583E-03     184.391E-03    -32.1346E-03    -31.2206E-03
            1691               1     199.701E-03     196.266E-03    -26.1196E-03    -25.8553E-03
            1692               1     186.912E-03     186.823E-03    -34.7077E-03    -35.6067E-03
            1693               1     200.830E-03     208.250E-03    -30.0674E-03    -29.0573E-03
            1694               1     189.586E-03     189.617E-03    -42.2596E-03    -41.2833E-03
            1695               1     214.431E-03     204.338E-03    -36.0977E-03    -36.4427E-03
            1696               1     173.795E-03     176.974E-03    -43.7272E-03    -40.8329E-03
            1697               1     212.354E-03     221.638E-03    -42.6514E-03    -39.3564E-03
            1698               1     178.921E-03     180.090E-03    -15.8301E-03    -17.3102E-03
            1699               1     198.441E-03     205.535E-03    -7.33517E-03    -11.3900E-03
            1700               1     199.387E-03     200.599E-03    -17.7971E-03    -19.2694E-03
            1701               1     215.211E-03     207.402E-03    -14.2499E-03    -14.8263E-03
            1702               1     208.997E-03     209.706E-03    -25.1043E-03    -24.2185E-03
            1703               1     221.122E-03     226.168E-03    -18.7461E-03    -19.9740E-03
            1704               1     214.988E-03     217.664E-03    -26.5761E-03    -28.3904E-03
            1705               1     230.338E-03     230.664E-03    -23.8488E-03    -23.8679E-03
            1706               1     220.445E-03     222.733E-03    -32.7026E-03    -31.2699E-03
            1707               1     237.490E-03     235.615E-03    -25.7346E-03    -25.6119E-03
            1708               1     224.409E-03     225.423E-03    -34.9579E-03    -36.7561E-03
            1709               1     240.839E-03     248.355E-03    -31.3589E-03    -29.9988E-03
            1710               1     227.781E-03     227.461E-03    -45.1312E-03    -43.7647E-03
            1711               1     254.532E-03     242.733E-03    -38.4029E-03    -38.6480E-03
            1712               1     207.479E-03     211.429E-03    -46.7784E-03    -43.5651E-03
            1713               1     251.581E-03     262.359E-03    -46.7468E-03    -42.6795E-03
            1714               1     7.31125E-15     7.08815E-15    -1.15275E-15    -754.139E-18
            1715               1     7.40669E-15     8.03223E-15     3.62309E-15     3.62309E-15
            1716               1     11.6004E-15     10.5858E-15     3.05767E-15     2.47231E-15
            1717               1     9.18073E-15     9.46869E-15     4.02247E-15     3.60510E-15
            1718               1     10.7512E-15     9.81272E-15     3.15426E-15     3.32917E-15
            1719               1     5.16110E-15     5.15023E-15     1.55889E-15     1.87351E-15
            1720               1     14.4820E-15     12.9780E-15     6.08148E-15     5.35987E-15
            1721               1     3.63623E-15     3.28033E-15     541.863E-18     220.894E-18
            1722               1     11.6580E-15     10.6246E-15    -1.17667E-15    -348.846E-18
            1723               1     12.7842E-15     12.3679E-15    -1.54630E-15    -1.50473E-15
            1724               1     4.32466E-15     3.33663E-15    -1.42160E-15    -1.62942E-15
            1725               1     5.45419E-15     7.48032E-15     2.11393E-15     2.46261E-15
            1726               1     8.34963E-15     8.11638E-15    -1.02138E-15    -504.134E-18
            1727               1     6.97906E-15     6.42871E-15    -3.23691E-15    -2.86514E-15
            1728               1     11.6697E-15     11.0045E-15     3.32466E-15     2.77739E-15
            1729               1     5.04659E-15     4.70408E-15     1.61441E-15     1.43661E-15
            1730               1     4.58934E-15     5.03659E-15    -1.19069E-15    -1.86034E-15
            1731               1     10.9255E-15     10.5266E-15     2.27672E-15     2.29982E-15
            2140               1     5.82727E-15     5.41472E-15    -2.31944E-15    -2.25710E-15
            2141               1     3.41800E-15     3.42038E-15    -1.39043E-15    -1.66060E-15
            2142               1     4.40362E-15     3.91583E-15     338.287E-18    -338.287E-18
            2143               1     2.30872E-15     2.77221E-15     470.652E-18     1.05486E-15
            2144               1     4.27833E-15     4.19307E-15     756.984E-18     768.529E-18
            2145               1     3.12362E-15     2.59303E-15    -919.777E-18    -605.736E-18
            2146               1     149.880E-03     183.046E-03     19.3022E-03     15.9934E-03
            2147               1     200.818E-03     151.340E-03     22.4139E-03     21.5192E-03
            2148               1     151.961E-03     192.163E-03     20.5462E-03     20.6595E-03
            2149               1     179.356E-03     142.950E-03     18.9862E-03     19.4931E-03
            2150               1     137.139E-03     154.555E-03     21.8097E-03     24.4819E-03
            2151               1     139.547E-03     148.287E-03     12.8422E-03     12.6915E-03
            2152               1     148.233E-03     139.993E-03     27.1390E-03     26.8420E-03
            2153               1     111.149E-03     133.042E-03     25.7566E-03     23.2167E-03
            2154               1     146.887E-03     112.882E-03     27.7936E-03     27.8686E-03
            2155               1     111.600E-03     137.236E-03     26.6960E-03     26.9994E-03
            2156               1     131.215E-03     105.703E-03     26.5866E-03     25.4909E-03
            2157               1     102.457E-03     114.072E-03     27.3672E-03     29.4252E-03
            2158               1     100.167E-03     106.607E-03     19.6553E-03     18.9219E-03
            2159               1     112.136E-03     106.898E-03     32.9820E-03     33.1478E-03
            2160               1     79.2643E-03     87.3128E-03     31.1144E-03     27.6761E-03
            2161               1     97.3939E-03     80.3653E-03     34.5577E-03     33.3689E-03
            2162               1     76.3215E-03     89.5997E-03     30.8609E-03     31.2641E-03
            2163               1     83.6870E-03     72.6082E-03     28.5498E-03     29.0458E-03
            2164               1     74.6808E-03     81.8639E-03     31.4475E-03     33.7509E-03
            2165               1     66.3273E-03     68.4812E-03     24.0673E-03     23.5797E-03
            2166               1     84.2610E-03     80.7107E-03     37.9227E-03     37.6873E-03
            2167               1     61.6168E-03     48.6085E-03     34.5231E-03     27.0927E-03
            2168               1     66.3630E-03     59.5452E-03     36.7774E-03     32.5808E-03
            2169               1     60.2065E-03     62.3439E-03     33.3572E-03     34.0850E-03
            2170               1     55.1643E-03     60.5354E-03     30.5571E-03     33.6793E-03
            2171               1     55.9673E-03     66.1024E-03     31.3418E-03     37.7211E-03
            2172               1     48.2153E-03     47.3283E-03     27.1835E-03     26.5354E-03
            2173               1     68.6498E-03     68.2321E-03     39.0548E-03     39.0262E-03
            2174               1     47.2204E-03     55.7246E-03     23.3265E-03     21.6321E-03
            2175               1     61.7777E-03     55.6630E-03     28.9900E-03     28.5463E-03
            2176               1     58.0780E-03     63.6114E-03     31.7693E-03     32.3668E-03
            2177               1     70.7990E-03     67.3918E-03     37.6263E-03     36.9555E-03
            2178               1     76.0713E-03     81.1484E-03     42.2955E-03     42.8547E-03
            2179               1     55.5893E-03     56.1840E-03     29.3037E-03     28.8350E-03
            2180               1     73.1717E-03     72.7718E-03     39.5738E-03     39.1788E-03
            2181               1     63.2484E-03     78.6998E-03     8.83898E-03     14.0139E-03
            2182               1     75.9265E-03     68.3268E-03     17.7731E-03     21.2668E-03
            2183               1     70.6563E-03     76.1996E-03     27.5209E-03     26.2434E-03
            2184               1     82.8715E-03     74.9119E-03     37.4051E-03     34.1133E-03
            2185               1     86.2094E-03     82.2119E-03     45.0871E-03     40.6913E-03
            2186               1     71.2129E-03     75.0777E-03     25.9045E-03     25.3763E-03
            2187               1     72.1549E-03     71.8396E-03     31.2736E-03     31.6369E-03
            2188               1     86.4754E-03     82.2705E-03     32.3690E-03     31.7326E-03
            2189               1     93.3198E-03     89.8930E-03     26.8402E-03     26.9869E-03
            2190               1     82.4346E-03     90.6728E-03     25.9657E-03     26.3473E-03
            2191               1     81.5007E-03     90.4426E-03     22.9434E-03     22.9289E-03
            2192               1     97.4914E-03     95.2607E-03     45.6767E-03     45.9127E-03
            2193               1     105.614E-03     103.559E-03     39.8752E-03     40.4599E-03
            2194               1     100.293E-03     101.503E-03     43.5716E-03     42.1767E-03
            2195               1     97.6273E-03     100.801E-03     33.3264E-03     34.4316E-03
            2196               1     94.9285E-03     98.4168E-03     33.7968E-03     32.6585E-03
            2197               1     96.4019E-03     100.210E-03     29.6306E-03     28.8733E-03
            2198               1     91.0115E-03     93.1496E-03     24.6991E-03     24.8501E-03
            2199               1     91.7401E-03     96.6048E-03     21.6378E-03     21.0766E-03
            2200               1     83.1747E-03     89.6511E-03     14.1096E-03     15.6476E-03
            2201               1     87.2207E-03     91.4171E-03     16.1935E-03     16.0911E-03
            2202               1     2.89337E-15     1.61377E-15    -237.840E-18     237.840E-18
            2203               1     3.36339E-15     1.94819E-15    -491.434E-18    -1.03408E-15
            2204               1     2.83384E-15     2.74673E-15    -1.55207E-15    -1.49896E-15
            2205               1     2.54249E-15     2.31432E-15    -632.291E-18    -893.222E-18
            2206               1     5.71355E-15     6.37470E-15    -245.922E-18     245.922E-18
            2207               1     7.60807E-15     8.99570E-15     1.03754E-15     487.971E-18
            2208               1     3.00531E-15     3.71127E-15    -1.54399E-15    -1.50704E-15
            2209               1     2.52522E-15     2.81107E-15    -1.44123E-15    -1.60980E-15
            2210               1     2.00523E-15     2.80697E-15    -752.366E-18    -773.148E-18
            2211               1     3.95379E-15     4.24510E-15    -2.17281E-15    -2.40373E-15
            2212               1     827.155E-18     894.717E-18     108.529E-18    -108.529E-18
            2213               1     2.03164E-15     2.84637E-15     847.040E-18     678.473E-18
            2214               1     2.79221E-15     2.70040E-15     1.56939E-15     1.48164E-15
            2215               1     5.05165E-15     4.73279E-15     1.56592E-15     1.48510E-15
            2216               1     4.34099E-15     4.08778E-15     787.002E-18     738.511E-18
            2217               1     3.78671E-15     3.03882E-15    -1.80145E-15    -1.24957E-15
            2218               1     3.27618E-15     4.80565E-15     285.177E-18    -285.177E-18
            2219               1     3.73478E-15     5.95618E-15    -1.53821E-15    -1.51281E-15
            2220               1     10.7657E-15     11.1134E-15    -6.14015E-15    -6.06395E-15
            2221               1     2.22187E-15     2.86821E-15    -526.071E-18    -999.442E-18
            2222               1     1.52932E-15     1.12760E-15    -879.367E-18    -646.146E-18
            2223               1     4.04539E-15     4.48680E-15     422.160E-18     1.10335E-15
            2224               1     2.57350E-15     2.46047E-15     835.494E-18     690.019E-18
            2225               1     4.05137E-15     3.92553E-15     125.847E-18    -125.847E-18
            2226               1     8.36025E-15     8.50722E-15    -1.59479E-15    -1.45624E-15
            2227               1     2.57679E-15     2.32582E-15    -959.032E-18    -566.481E-18
            2228               1     4.33010E-15     4.65262E-15    -2.22361E-15    -2.35293E-15
            2229               1     1.97425E-15     2.11761E-15     111.993E-18    -111.993E-18
            2230               1     4.20240E-15     4.28323E-15     514.526E-18     1.01099E-15
            2231               1     2.80707E-15     2.17021E-15    -977.505E-18    -548.008E-18
            2232               1     2.40366E-15     2.55884E-15     768.529E-18     756.984E-18
            2233               1     6.50235E-15     6.74551E-15    -3.01754E-15    -3.08451E-15
            2234               1     3.85642E-15     4.26186E-15     289.795E-18    -289.795E-18
            2235               1     4.32524E-15     4.58616E-15     897.841E-18     627.673E-18
            2236               1     5.96596E-15     5.42396E-15     3.20689E-15     2.89516E-15
            2237               1     7.24302E-15     6.92097E-15     1.33039E-15     1.72063E-15
            2238               1     2.68321E-15     2.71408E-15     1.53706E-15     1.51397E-15
            2239               1     2.78703E-15     2.63868E-15     842.421E-18     683.092E-18
            2240               1     1.76546E-15     1.77482E-15     771.993E-18     753.520E-18
            2241               1     3.98093E-15     5.76895E-15    -1.61211E-15    -1.43892E-15
            2242               1     3.70178E-15     6.09294E-15    -1.08216E-15    -1.96887E-15
            2243               1     3.52707E-15     3.36683E-15    -1.77144E-15    -1.27959E-15
            2244               1     3.12294E-15     2.30843E-15     872.440E-18     653.073E-18
            2245               1     2.79968E-15     1.48862E-15    -95.8287E-18     95.8287E-18
            2246               1     1.44574E-15     1.67884E-15    -669.237E-18    -856.276E-18
            2247               1     3.81048E-15     4.24352E-15     2.17512E-15     2.40142E-15
            2248               1     2.46695E-15     1.79298E-15     25.4004E-18    -25.4004E-18
            2249               1     2.98207E-15     1.95525E-15    -675.010E-18    -850.503E-18
            2250               1     1.57712E-15     1.66801E-15    -728.120E-18    -797.393E-18
            2251               1     2.40040E-15     2.72079E-15    -970.578E-18    -554.935E-18
            2252               1     1.59156E-15     2.39541E-15    -48.4917E-18     48.4917E-18
            2253               1     1.89981E-15     1.26517E-15    -874.749E-18    -650.764E-18
            2254               1     2.74681E-15     2.07759E-15    -900.150E-18    -625.364E-18
            2255               1     3.05433E-15     2.32701E-15    -1.73564E-15    -1.31538E-15
            2256               1     5.64852E-15     4.29184E-15    -1.32000E-15    -1.73103E-15
            2257               1     2.69946E-15     4.37224E-15    -912.850E-18    -612.663E-18
            2258               1     1.91937E-15     2.35289E-15     88.9014E-18    -88.9014E-18
            2259               1     100.541E-03     96.2685E-03     27.7117E-03     27.7903E-03
            2260               1     107.975E-03     104.141E-03     27.4640E-03     27.3231E-03
            2261               1     115.818E-03     111.585E-03     27.3771E-03     27.5177E-03
            2262               1     123.560E-03     119.483E-03     27.4762E-03     27.3709E-03
            2263               1     131.539E-03     127.309E-03     27.3883E-03     27.4652E-03
            2264               1     139.509E-03     135.304E-03     27.4473E-03     27.4029E-03
            2265               1     147.579E-03     143.328E-03     27.4109E-03     27.4397E-03
            2266               1     155.687E-03     151.421E-03     27.4296E-03     27.4207E-03
            2267               1     163.844E-03     159.557E-03     27.4245E-03     27.4257E-03
            2268               1     172.026E-03     167.746E-03     27.4163E-03     27.4335E-03
            2269               1     180.278E-03     175.930E-03     27.4391E-03     27.4086E-03
            2270               1     188.467E-03     184.237E-03     27.3909E-03     27.4524E-03
            2271               1     196.851E-03     192.374E-03     27.4536E-03     27.3606E-03
            2272               1     204.948E-03     200.878E-03     27.3104E-03     27.4528E-03
            2273               1     213.403E-03     208.684E-03     27.2740E-03     27.0936E-03
            2274               1     221.415E-03     217.596E-03     26.7942E-03     26.9925E-03
            2275               1     227.761E-03     222.858E-03     24.2514E-03     24.1343E-03
            2276               1     239.047E-03     234.948E-03     21.1187E-03     20.9606E-03
            2277               1     226.145E-03     222.090E-03    -16.5143E-03    -15.6680E-03
            2278               1     92.2303E-03     100.301E-03     24.3605E-03     24.2155E-03
            2279               1     98.8307E-03     108.090E-03     23.9763E-03     24.1608E-03
            2280               1     107.229E-03     115.759E-03     24.2392E-03     24.0824E-03
            2281               1     114.814E-03     124.016E-03     24.0869E-03     24.2085E-03
            2282               1     123.010E-03     131.914E-03     24.1930E-03     24.1147E-03
            2283               1     130.970E-03     140.144E-03     24.1268E-03     24.1793E-03
            2284               1     139.152E-03     148.263E-03     24.1663E-03     24.1407E-03
            2285               1     147.302E-03     156.499E-03     24.1463E-03     24.1606E-03
            2286               1     155.524E-03     164.737E-03     24.1516E-03     24.1555E-03
            2287               1     163.770E-03     173.015E-03     24.1606E-03     24.1471E-03
            2288               1     172.056E-03     181.306E-03     24.1355E-03     24.1735E-03
            2289               1     180.333E-03     189.653E-03     24.1893E-03     24.1276E-03
            2290               1     188.723E-03     197.937E-03     24.1123E-03     24.2195E-03
            2291               1     196.939E-03     206.405E-03     24.2970E-03     24.1421E-03
            2292               1     205.597E-03     214.647E-03     24.1975E-03     24.4145E-03
            2293               1     213.464E-03     223.180E-03     25.1622E-03     24.9101E-03
            2294               1     223.591E-03     232.388E-03     25.8860E-03     26.1155E-03
            2295               1     229.512E-03     239.062E-03     36.0257E-03     35.9909E-03
            2296               1     262.456E-03     271.131E-03     46.3758E-03     45.8978E-03
            2297               1     112.521E-03     111.226E-03     37.7622E-03     38.2418E-03
            2298               1     119.913E-03     118.793E-03     36.1210E-03     36.2800E-03
            2299               1     127.660E-03     126.812E-03     35.2099E-03     35.2972E-03
            2300               1     135.833E-03     134.935E-03     34.5177E-03     34.5378E-03
            2301               1     144.326E-03     143.484E-03     34.1535E-03     34.1402E-03
            2302               1     152.876E-03     151.953E-03     33.6649E-03     33.6676E-03
            2303               1     161.672E-03     160.778E-03     33.4240E-03     33.4145E-03
            2304               1     170.203E-03     169.256E-03     32.8054E-03     32.8082E-03
            2305               1     179.105E-03     178.185E-03     32.5116E-03     32.5082E-03
            2306               1     187.249E-03     186.286E-03     31.3584E-03     31.3593E-03
            2307               1     196.144E-03     195.208E-03     30.8512E-03     30.8484E-03
            2308               1     203.320E-03     202.339E-03     28.3875E-03     28.3918E-03
            2309               1     212.123E-03     211.183E-03     27.3930E-03     27.3872E-03
            2310               1     217.272E-03     216.335E-03     21.8483E-03     21.8960E-03
            2311               1     225.797E-03     224.903E-03     19.6789E-03     19.6429E-03
            2312               1     227.072E-03     226.517E-03     6.61310E-03     6.90850E-03
            2313               1     231.786E-03     231.008E-03     933.368E-06     544.091E-06
            2314               1     228.853E-03     228.037E-03    -24.2525E-03    -23.9752E-03
            2315               1     249.236E-03     246.125E-03    -30.7143E-03    -33.8773E-03
            2316               1     107.954E-03     109.429E-03     32.1503E-03     32.5023E-03
            2317               1     115.461E-03     116.695E-03     31.0023E-03     31.4714E-03
            2318               1     123.982E-03     124.911E-03     30.7170E-03     30.8074E-03
            2319               1     132.551E-03     133.381E-03     30.5034E-03     30.5150E-03
            2320               1     141.212E-03     142.051E-03     30.2160E-03     30.2363E-03
            2321               1     150.165E-03     151.010E-03     30.0986E-03     30.0657E-03
            2322               1     158.957E-03     159.822E-03     29.7809E-03     29.7943E-03
            2323               1     168.218E-03     169.091E-03     29.6461E-03     29.6329E-03
            2324               1     176.897E-03     177.773E-03     29.1558E-03     29.1569E-03
            2325               1     186.533E-03     187.420E-03     28.9294E-03     28.9340E-03
            2326               1     194.736E-03     195.623E-03     27.9599E-03     27.9443E-03
            2327               1     205.100E-03     205.991E-03     27.5369E-03     27.5589E-03
            2328               1     212.189E-03     213.111E-03     25.4551E-03     25.4380E-03
            2329               1     224.344E-03     225.171E-03     24.6926E-03     24.7378E-03
            2330               1     229.147E-03     230.238E-03     19.9907E-03     20.0964E-03
            2331               1     245.466E-03     245.743E-03     18.6787E-03     18.5991E-03
            2332               1     246.059E-03     247.497E-03     5.04558E-03     5.59831E-03
            2333               1     261.664E-03     261.952E-03    -1.46443E-03    -2.92405E-03
            2334               1     239.037E-03     245.158E-03    -1.93964E-03    -2.67229E-03
            2335               1     101.801E-03     105.598E-03     25.8566E-03     26.1158E-03
            2336               1     111.076E-03     114.270E-03     26.1824E-03     26.1581E-03
            2337               1     119.984E-03     122.606E-03     26.1552E-03     26.1434E-03
            2338               1     129.010E-03     131.691E-03     26.2511E-03     26.2788E-03
            2339               1     138.130E-03     140.732E-03     26.3471E-03     26.3120E-03
            2340               1     147.177E-03     149.866E-03     26.3357E-03     26.3664E-03
            2341               1     156.542E-03     159.219E-03     26.3757E-03     26.3525E-03
            2342               1     165.591E-03     168.313E-03     26.3602E-03     26.3721E-03
            2343               1     175.327E-03     178.044E-03     26.3679E-03     26.3666E-03
            2344               1     184.210E-03     186.952E-03     26.3767E-03     26.3651E-03
            2345               1     194.634E-03     197.372E-03     26.3662E-03     26.3894E-03
            2346               1     203.019E-03     205.787E-03     26.4345E-03     26.3981E-03
            2347               1     214.993E-03     217.702E-03     26.4674E-03     26.5134E-03
            2348               1     222.210E-03     225.028E-03     26.6997E-03     26.6488E-03
            2349               1     238.031E-03     240.390E-03     27.0671E-03     27.1170E-03
            2350               1     242.492E-03     245.546E-03     27.0240E-03     26.9642E-03
            2351               1     269.967E-03     271.103E-03     27.7848E-03     27.6710E-03
            2352               1     268.307E-03     273.375E-03     17.9469E-03     18.7869E-03
            2353               1     245.391E-03     250.421E-03     5.46164E-03     6.62310E-03
            2354               1     97.9388E-03     102.806E-03     21.7368E-03     21.1444E-03
            2355               1     106.862E-03     111.027E-03     21.4923E-03     21.0916E-03
            2356               1     116.179E-03     120.706E-03     21.8992E-03     21.8236E-03
            2357               1     125.534E-03     129.927E-03     22.1614E-03     22.0988E-03
            2358               1     134.898E-03     139.461E-03     22.4454E-03     22.4821E-03
            2359               1     144.340E-03     148.855E-03     22.6466E-03     22.6278E-03
            2360               1     153.654E-03     158.246E-03     22.9292E-03     22.9523E-03
            2361               1     163.272E-03     167.839E-03     23.0981E-03     23.0905E-03
            2362               1     172.526E-03     177.135E-03     23.5799E-03     23.5795E-03
            2363               1     182.493E-03     187.085E-03     23.8011E-03     23.8139E-03
            2364               1     191.567E-03     196.192E-03     24.8150E-03     24.7915E-03
            2365               1     202.266E-03     206.858E-03     25.2205E-03     25.2562E-03
            2366               1     210.880E-03     215.526E-03     27.4540E-03     27.3945E-03
            2367               1     223.256E-03     227.744E-03     28.3174E-03     28.3573E-03
            2368               1     230.846E-03     235.530E-03     33.1323E-03     32.9470E-03
            2369               1     248.030E-03     252.043E-03     34.7671E-03     34.8828E-03
            2370               1     254.400E-03     259.500E-03     44.7648E-03     44.2809E-03
            2371               1     291.264E-03     294.163E-03     46.7623E-03     47.9283E-03
            2372               1     279.578E-03     283.226E-03     12.5344E-03     14.0172E-03
            2373               1     95.0082E-03     99.4693E-03     17.1375E-03     16.5000E-03
            2374               1     103.276E-03     109.216E-03     17.5145E-03     17.3745E-03
            2375               1     112.594E-03     118.739E-03     17.7699E-03     17.6511E-03
            2376               1     122.188E-03     128.683E-03     18.2740E-03     18.2851E-03
            2377               1     131.796E-03     138.210E-03     18.5633E-03     18.5519E-03
            2378               1     141.345E-03     147.858E-03     19.0221E-03     19.0372E-03
            2379               1     150.899E-03     157.347E-03     19.2727E-03     19.2697E-03
            2380               1     160.346E-03     166.853E-03     19.8847E-03     19.8878E-03
            2381               1     169.870E-03     176.338E-03     20.1846E-03     20.1877E-03
            2382               1     179.213E-03     185.725E-03     21.3447E-03     21.3369E-03
            2383               1     188.738E-03     195.206E-03     21.8483E-03     21.8645E-03
            2384               1     197.895E-03     204.406E-03     24.3123E-03     24.2861E-03
            2385               1     207.427E-03     213.866E-03     25.2551E-03     25.2918E-03
            2386               1     216.337E-03     222.857E-03     30.5377E-03     30.4453E-03
            2387               1     226.072E-03     232.507E-03     32.1205E-03     32.2101E-03
            2388               1     235.685E-03     242.288E-03     43.2984E-03     42.9653E-03
            2389               1     247.557E-03     254.000E-03     44.6699E-03     45.2310E-03
            2390               1     266.013E-03     272.233E-03     66.5982E-03     65.5126E-03
            2391               1     336.309E-03     343.063E-03     56.2450E-03     58.0218E-03
            2392               1     53.3998E-03     53.2392E-03     30.7418E-03     30.7305E-03
            2393               1     51.7477E-03     51.7407E-03     29.5970E-03     29.7698E-03
            2394               1     51.4319E-03     50.9797E-03     29.2647E-03     29.2194E-03
            2395               1     50.5796E-03     50.2261E-03     28.6093E-03     28.6700E-03
            2396               1     50.3545E-03     49.8238E-03     28.3611E-03     28.3405E-03
            2397               1     50.0321E-03     49.5157E-03     28.0412E-03     28.0608E-03
            2398               1     49.8245E-03     49.2295E-03     27.8125E-03     27.8062E-03
            2399               1     49.7913E-03     49.1727E-03     27.6638E-03     27.6688E-03
            2400               1     49.3984E-03     48.7327E-03     27.3208E-03     27.3199E-03
            2401               1     49.4472E-03     48.7431E-03     27.2116E-03     27.2113E-03
            2402               1     48.5457E-03     47.8125E-03     26.5671E-03     26.5726E-03
            2403               1     48.4005E-03     47.6067E-03     26.3493E-03     26.3408E-03
            2404               1     46.3706E-03     45.5975E-03     25.0796E-03     25.1031E-03
            2405               1     45.4433E-03     44.5446E-03     24.5038E-03     24.4664E-03
            2406               1     41.1604E-03     40.4154E-03     22.1284E-03     22.1816E-03
            2407               1     38.4498E-03     37.4345E-03     20.9262E-03     20.7805E-03
            2408               1     30.2809E-03     29.7739E-03     16.9487E-03     16.9594E-03
            2409               1     27.5154E-03     27.0555E-03     15.7997E-03     15.1774E-03
            2410               1     33.9236E-03     38.3956E-03     8.61077E-03     7.28161E-03
            2411               1     51.3406E-03     51.7795E-03     29.5021E-03     29.8345E-03
            2412               1     50.7327E-03     50.5186E-03     29.0023E-03     28.9934E-03
            2413               1     49.8582E-03     49.8363E-03     28.2936E-03     28.4592E-03
            2414               1     49.7707E-03     49.3854E-03     28.1426E-03     28.1004E-03
            2415               1     49.4209E-03     49.1546E-03     27.7938E-03     27.8578E-03
            2416               1     49.3830E-03     48.9743E-03     27.6893E-03     27.6731E-03
            2417               1     49.3819E-03     48.9907E-03     27.5506E-03     27.5696E-03
            2418               1     49.2510E-03     48.8048E-03     27.3827E-03     27.3780E-03
            2419               1     49.4374E-03     48.9704E-03     27.3330E-03     27.3375E-03
            2420               1     49.0726E-03     48.5822E-03     27.0143E-03     27.0160E-03
            2421               1     49.3567E-03     48.8169E-03     26.9827E-03     26.9791E-03
            2422               1     48.4624E-03     47.9475E-03     26.3476E-03     26.3670E-03
            2423               1     48.6605E-03     48.0091E-03     26.2307E-03     26.2000E-03
            2424               1     46.5186E-03     46.0319E-03     24.9171E-03     24.9789E-03
            2425               1     45.8819E-03     45.0386E-03     24.4270E-03     24.3048E-03
            2426               1     40.9947E-03     40.5469E-03     21.9332E-03     21.9817E-03
            2427               1     37.3520E-03     36.2464E-03     20.3335E-03     19.9387E-03
            2428               1     28.6549E-03     27.8688E-03     16.4769E-03     15.8687E-03
            2429               1     17.5829E-03     15.2668E-03     2.85534E-03     2.90338E-03
            2430               1     50.8597E-03     50.9010E-03     29.2433E-03     29.2896E-03
            2431               1     49.4924E-03     49.5767E-03     28.2293E-03     28.3546E-03
            2432               1     48.8840E-03     48.6746E-03     27.7694E-03     27.7217E-03
            2433               1     48.4998E-03     48.4509E-03     27.3784E-03     27.4717E-03
            2434               1     48.5711E-03     48.3514E-03     27.3580E-03     27.3366E-03
            2435               1     48.6523E-03     48.4774E-03     27.2616E-03     27.2952E-03
            2436               1     48.7451E-03     48.5095E-03     27.2465E-03     27.2393E-03
            2437               1     49.0201E-03     48.7813E-03     27.2506E-03     27.2599E-03
            2438               1     49.0261E-03     48.7665E-03     27.1715E-03     27.1693E-03
            2439               1     49.4709E-03     49.1891E-03     27.2354E-03     27.2369E-03
            2440               1     49.3069E-03     49.0335E-03     27.0510E-03     27.0563E-03
            2441               1     49.9559E-03     49.6103E-03     27.1671E-03     27.1550E-03
            2442               1     49.2774E-03     49.0287E-03     26.6996E-03     26.7295E-03
            2443               1     49.8536E-03     49.3796E-03     26.7079E-03     26.6499E-03
            2444               1     47.3993E-03     47.2525E-03     25.3364E-03     25.4160E-03
            2445               1     45.6390E-03     45.0872E-03     24.2050E-03     24.0791E-03
            2446               1     38.4179E-03     38.3319E-03     20.8564E-03     20.8400E-03
            2447               1     23.6771E-03     24.4929E-03     13.2414E-03     13.6087E-03
            2448               1     4.27412E-03     5.39785E-03     2.32140E-03     2.98947E-03
            2449               1     51.8097E-03     51.3089E-03     29.7075E-03     29.3882E-03
            2450               1     48.8537E-03     48.7157E-03     27.8747E-03     27.7839E-03
            2451               1     47.8934E-03     47.8888E-03     27.1619E-03     27.1844E-03
            2452               1     47.6415E-03     47.6272E-03     26.9678E-03     26.9581E-03
            2453               1     47.7768E-03     47.7583E-03     26.9002E-03     26.9208E-03
            2454               1     47.9563E-03     47.9313E-03     26.9514E-03     26.9500E-03
            2455               1     48.3090E-03     48.2676E-03     27.0078E-03     27.0138E-03
            2456               1     48.5250E-03     48.4835E-03     27.0676E-03     27.0657E-03
            2457               1     48.9880E-03     48.9385E-03     27.1640E-03     27.1666E-03
            2458               1     49.2075E-03     49.1578E-03     27.2253E-03     27.2222E-03
            2459               1     49.8735E-03     49.8108E-03     27.3900E-03     27.3913E-03
            2460               1     50.0225E-03     49.9802E-03     27.4320E-03     27.4307E-03
            2461               1     50.9068E-03     50.8015E-03     27.6358E-03     27.6276E-03
            2462               1     50.3625E-03     50.3718E-03     27.3322E-03     27.3473E-03
            2463               1     50.5500E-03     50.4066E-03     27.0084E-03     26.9973E-03
            2464               1     46.5882E-03     46.8230E-03     24.7954E-03     24.9175E-03
            2465               1     39.8214E-03     40.4124E-03     20.6663E-03     20.9646E-03
            2466               1     27.5779E-03     28.1568E-03     12.9333E-03     13.4411E-03
            2467               1     12.4611E-03     13.7732E-03     2.03875E-03     2.43760E-03
            2468               1     51.4082E-03     50.8478E-03     29.3058E-03     28.9416E-03
            2469               1     48.3756E-03     48.2769E-03     27.5234E-03     27.4030E-03
            2470               1     47.2085E-03     47.3545E-03     26.8371E-03     26.8332E-03
            2471               1     47.1516E-03     47.1899E-03     26.6826E-03     26.6413E-03
            2472               1     47.1402E-03     47.3191E-03     26.6368E-03     26.6505E-03
            2473               1     47.5317E-03     47.6347E-03     26.7272E-03     26.7109E-03
            2474               1     47.7877E-03     47.9523E-03     26.8174E-03     26.8215E-03
            2475               1     48.2267E-03     48.3721E-03     26.9215E-03     26.9172E-03
            2476               1     48.5864E-03     48.7492E-03     27.0709E-03     27.0679E-03
            2477               1     49.1072E-03     49.2807E-03     27.1951E-03     27.1983E-03
            2478               1     49.5782E-03     49.7441E-03     27.4318E-03     27.4201E-03
            2479               1     50.2617E-03     50.4531E-03     27.5947E-03     27.6064E-03
            2480               1     50.6971E-03     50.8692E-03     27.8587E-03     27.8326E-03
            2481               1     51.3304E-03     51.5452E-03     27.8521E-03     27.8847E-03
            2482               1     50.5723E-03     50.8164E-03     27.4296E-03     27.4169E-03
            2483               1     49.5019E-03     49.8845E-03     25.9831E-03     26.1172E-03
            2484               1     42.6139E-03     43.3764E-03     20.9876E-03     21.3908E-03
            2485               1     34.0246E-03     35.1650E-03     13.9177E-03     14.3089E-03
            2486               1     27.0873E-03     26.9296E-03     2.16118E-03     2.81419E-03
            2487               1     49.5099E-03     49.7182E-03     28.0525E-03     28.0355E-03
            2488               1     47.7258E-03     48.0580E-03     27.1615E-03     27.1943E-03
            2489               1     47.2064E-03     47.2235E-03     26.8120E-03     26.6742E-03
            2490               1     46.6824E-03     47.0585E-03     26.4991E-03     26.5424E-03
            2491               1     47.0043E-03     47.1794E-03     26.5766E-03     26.5100E-03
            2492               1     47.0835E-03     47.4396E-03     26.5698E-03     26.5867E-03
            2493               1     47.4737E-03     47.7705E-03     26.6669E-03     26.6448E-03
            2494               1     47.8031E-03     48.1655E-03     26.7953E-03     26.7978E-03
            2495               1     48.1751E-03     48.5453E-03     26.8660E-03     26.8634E-03
            2496               1     48.6823E-03     49.0579E-03     27.1121E-03     27.1031E-03
            2497               1     49.0550E-03     49.4799E-03     27.1550E-03     27.1670E-03
            2498               1     49.7323E-03     50.1083E-03     27.5361E-03     27.5057E-03
            2499               1     50.0371E-03     50.5340E-03     27.4578E-03     27.5005E-03
            2500               1     50.6536E-03     51.0164E-03     27.8226E-03     27.7498E-03
            2501               1     50.5311E-03     51.1712E-03     27.1684E-03     27.2779E-03
            2502               1     49.6196E-03     50.0803E-03     26.3444E-03     26.2665E-03
            2503               1     49.7875E-03     50.3798E-03     24.0160E-03     24.0875E-03
            2504               1     42.8285E-03     43.4853E-03     14.7170E-03     15.3242E-03
            2505               1     38.7350E-03     40.4823E-03     3.68235E-03     4.19216E-03
            2506               1     48.5411E-03     49.4087E-03     27.5249E-03     27.7578E-03
            2507               1     47.9525E-03     48.1144E-03     27.2415E-03     27.1016E-03
            2508               1     46.8762E-03     47.4493E-03     26.6743E-03     26.7560E-03
            2509               1     46.9832E-03     47.2111E-03     26.6767E-03     26.5623E-03
            2510               1     46.6758E-03     47.1960E-03     26.4614E-03     26.4912E-03
            2511               1     46.9395E-03     47.3558E-03     26.5140E-03     26.4708E-03
            2512               1     47.0954E-03     47.6359E-03     26.5392E-03     26.5482E-03
            2513               1     47.3490E-03     47.8870E-03     26.5683E-03     26.5576E-03
            2514               1     47.7696E-03     48.3466E-03     26.7476E-03     26.7456E-03
            2515               1     47.9338E-03     48.5528E-03     26.7088E-03     26.7125E-03
            2516               1     48.5470E-03     49.1513E-03     27.0179E-03     27.0016E-03
            2517               1     48.4936E-03     49.1981E-03     26.8111E-03     26.8361E-03
            2518               1     49.2548E-03     49.8674E-03     27.2171E-03     27.1676E-03
            2519               1     48.7499E-03     49.6080E-03     26.5760E-03     26.6533E-03
            2520               1     49.5808E-03     50.2113E-03     26.9007E-03     26.7743E-03
            2521               1     48.9796E-03     50.0693E-03     25.3605E-03     25.4696E-03
            2522               1     49.9941E-03     50.7523E-03     24.8708E-03     24.5593E-03
            2523               1     57.8381E-03     58.5473E-03     22.0217E-03     21.6745E-03
            2524               1     58.4741E-03     57.1721E-03     4.71081E-03     5.15833E-03
            2525               1     49.5584E-03     50.0400E-03     28.0373E-03     27.9482E-03
            2526               1     47.6965E-03     48.5074E-03     27.1194E-03     27.2417E-03
            2527               1     47.4743E-03     47.8713E-03     27.0023E-03     26.9097E-03
            2528               1     46.6639E-03     47.3239E-03     26.5278E-03     26.5621E-03
            2529               1     46.6619E-03     47.2202E-03     26.4683E-03     26.4283E-03
            2530               1     46.5329E-03     47.2258E-03     26.3362E-03     26.3472E-03
            2531               1     46.6581E-03     47.3534E-03     26.3210E-03     26.3092E-03
            2532               1     46.9376E-03     47.6951E-03     26.4090E-03     26.4112E-03
            2533               1     47.0200E-03     47.8155E-03     26.3529E-03     26.3517E-03
            2534               1     47.5419E-03     48.3635E-03     26.5800E-03     26.5761E-03
            2535               1     47.3809E-03     48.2688E-03     26.3585E-03     26.3654E-03
            2536               1     48.0352E-03     48.9191E-03     26.6537E-03     26.6375E-03
            2537               1     47.3168E-03     48.3397E-03     26.0192E-03     26.0471E-03
            2538               1     48.0571E-03     49.0354E-03     26.2717E-03     26.2227E-03
            2539               1     46.5360E-03     47.8422E-03     24.7769E-03     24.8495E-03
            2540               1     48.1124E-03     49.3406E-03     25.0140E-03     24.8582E-03
            2541               1     47.5383E-03     49.5238E-03     21.9934E-03     22.0905E-03
            2542               1     55.8786E-03     57.9420E-03     23.8546E-03     23.2481E-03
            2543               1     81.6471E-03     86.2132E-03     16.3197E-03     15.5191E-03
            2544               1     63.9304E-03     63.3655E-03     35.5455E-03     35.6558E-03
            2545               1     63.3455E-03     62.8736E-03     34.2056E-03     34.4651E-03
            2546               1     63.6101E-03     62.7831E-03     33.4786E-03     33.5149E-03
            2547               1     63.5789E-03     62.8127E-03     32.4953E-03     32.6087E-03
            2548               1     63.8336E-03     62.9185E-03     31.7507E-03     31.7678E-03
            2549               1     64.1670E-03     63.2578E-03     30.9944E-03     31.0424E-03
            2550               1     64.3846E-03     63.3954E-03     30.1917E-03     30.2012E-03
            2551               1     64.8683E-03     63.8582E-03     29.4979E-03     29.5175E-03
            2552               1     64.8165E-03     63.7488E-03     28.4583E-03     28.4650E-03
            2553               1     65.1462E-03     64.0449E-03     27.6246E-03     27.6316E-03
            2554               1     64.4479E-03     63.3001E-03     26.0968E-03     26.1055E-03
            2555               1     64.1456E-03     62.9404E-03     24.8664E-03     24.8605E-03
            2556               1     62.2448E-03     61.0017E-03     22.5488E-03     22.5611E-03
            2557               1     60.5065E-03     59.1203E-03     20.5947E-03     20.5493E-03
            2558               1     56.5789E-03     55.1148E-03     17.2119E-03     17.2054E-03
            2559               1     52.0957E-03     50.1997E-03     14.2070E-03     14.0219E-03
            2560               1     44.5725E-03     42.2377E-03     9.60828E-03     9.43825E-03
            2561               1     34.8642E-03     31.0695E-03     5.50932E-03     4.73889E-03
            2562               1     15.9542E-03     9.88880E-03    -455.155E-06    -2.66754E-03
            2563               1     61.0971E-03     61.5349E-03     33.6604E-03     34.1730E-03
            2564               1     61.1957E-03     61.0831E-03     32.7983E-03     33.0177E-03
            2565               1     61.4818E-03     61.3614E-03     31.8564E-03     32.1764E-03
            2566               1     62.0005E-03     61.5333E-03     31.2765E-03     31.3646E-03
            2567               1     62.5397E-03     62.0905E-03     30.5779E-03     30.7361E-03
            2568               1     63.0809E-03     62.4723E-03     30.0097E-03     30.0523E-03
            2569               1     63.8780E-03     63.2554E-03     29.4529E-03     29.5231E-03
            2570               1     64.3246E-03     63.6295E-03     28.7543E-03     28.7768E-03
            2571               1     65.2410E-03     64.5147E-03     28.1858E-03     28.2155E-03
            2572               1     65.3922E-03     64.6323E-03     27.1806E-03     27.1968E-03
            2573               1     66.1799E-03     65.3620E-03     26.4264E-03     26.4319E-03
            2574               1     65.6846E-03     64.8689E-03     24.8708E-03     24.8900E-03
            2575               1     65.8299E-03     64.8736E-03     23.7044E-03     23.6599E-03
            2576               1     64.0829E-03     63.1734E-03     21.3060E-03     21.3094E-03
            2577               1     62.4860E-03     61.2570E-03     19.4313E-03     19.2295E-03
            2578               1     58.2711E-03     57.0989E-03     16.0136E-03     15.8471E-03
            2579               1     52.6562E-03     50.9907E-03     13.0698E-03     12.4115E-03
            2580               1     41.8974E-03     40.2926E-03     8.78713E-03     7.58821E-03
            2581               1     22.6655E-03     26.6775E-03    -545.540E-06    -1.10085E-03
            2582               1     59.5381E-03     59.9393E-03     32.7470E-03     32.9609E-03
            2583               1     59.6109E-03     59.9224E-03     31.5697E-03     31.8528E-03
            2584               1     59.7018E-03     59.7292E-03     30.6724E-03     30.7909E-03
            2585               1     60.3895E-03     60.4038E-03     29.9673E-03     30.1920E-03
            2586               1     61.1191E-03     60.9348E-03     29.5378E-03     29.6053E-03
            2587               1     62.1752E-03     61.9583E-03     29.1048E-03     29.2221E-03
            2588               1     63.0086E-03     62.7067E-03     28.7091E-03     28.7469E-03
            2589               1     64.3292E-03     63.9864E-03     28.3750E-03     28.4282E-03
            2590               1     65.0933E-03     64.7206E-03     27.8320E-03     27.8527E-03
            2591               1     66.5696E-03     66.1467E-03     27.4623E-03     27.4827E-03
            2592               1     67.0403E-03     66.6304E-03     26.5878E-03     26.6039E-03
            2593               1     68.4316E-03     67.9159E-03     26.0342E-03     26.0181E-03
            2594               1     68.1411E-03     67.7188E-03     24.5209E-03     24.5357E-03
            2595               1     68.6647E-03     68.0141E-03     23.5001E-03     23.3906E-03
            2596               1     66.6165E-03     66.2002E-03     20.9353E-03     20.8907E-03
            2597               1     64.1605E-03     63.5067E-03     18.8281E-03     18.5201E-03
            2598               1     57.9519E-03     57.7299E-03     14.8390E-03     14.4676E-03
            2599               1     46.8122E-03     48.4563E-03     9.06888E-03     9.04151E-03
            2600               1     37.3557E-03     37.0566E-03    -509.427E-06     204.025E-06
            2601               1     60.4548E-03     60.3455E-03     32.9501E-03     32.6607E-03
            2602               1     58.2719E-03     58.5142E-03     30.6376E-03     30.6290E-03
            2603               1     58.4311E-03     58.6931E-03     29.6078E-03     29.7173E-03
            2604               1     58.8216E-03     59.0286E-03     28.9651E-03     29.0114E-03
            2605               1     59.9483E-03     60.0828E-03     28.5540E-03     28.6628E-03
            2606               1     60.9559E-03     61.0534E-03     28.3242E-03     28.3652E-03
            2607               1     62.5228E-03     62.5437E-03     28.1601E-03     28.2182E-03
            2608               1     63.6863E-03     63.6986E-03     27.9625E-03     27.9849E-03
            2609               1     65.5359E-03     65.4934E-03     27.8672E-03     27.8948E-03
            2610               1     66.6517E-03     66.6225E-03     27.5354E-03     27.5448E-03
            2611               1     68.7124E-03     68.6161E-03     27.4100E-03     27.4173E-03
            2612               1     69.4501E-03     69.4267E-03     26.7044E-03     26.7105E-03
            2613               1     71.3832E-03     71.2194E-03     26.3547E-03     26.3257E-03
            2614               1     70.9403E-03     71.0022E-03     24.7308E-03     24.7406E-03
            2615               1     71.2535E-03     71.1497E-03     23.5215E-03     23.4369E-03
            2616               1     67.9639E-03     68.2885E-03     20.1049E-03     20.0931E-03
            2617               1     62.7099E-03     63.6583E-03     16.2037E-03     16.2951E-03
            2618               1     55.3016E-03     55.8827E-03     9.08671E-03     9.49377E-03
            2619               1     46.8348E-03     48.7099E-03     132.797E-06     83.6600E-06
            2620               1     59.8347E-03     59.5338E-03     31.9985E-03     31.5880E-03
            2621               1     57.7666E-03     57.9510E-03     29.9605E-03     29.7862E-03
            2622               1     57.0248E-03     57.3897E-03     28.6667E-03     28.5857E-03
            2623               1     57.6834E-03     58.0282E-03     28.0360E-03     28.0439E-03
            2624               1     58.5068E-03     58.9507E-03     27.7511E-03     27.7615E-03
            2625               1     60.1218E-03     60.4439E-03     27.6572E-03     27.6783E-03
            2626               1     61.4564E-03     61.8378E-03     27.6472E-03     27.6613E-03
            2627               1     63.4620E-03     63.7637E-03     27.7212E-03     27.7353E-03
            2628               1     64.9597E-03     65.2948E-03     27.7499E-03     27.7519E-03
            2629               1     67.2688E-03     67.5572E-03     27.8803E-03     27.8920E-03
            2630               1     68.6869E-03     69.0191E-03     27.7896E-03     27.7817E-03
            2631               1     71.2550E-03     71.5218E-03     27.8782E-03     27.8880E-03
            2632               1     72.0643E-03     72.4685E-03     27.2673E-03     27.2666E-03
            2633               1     74.3701E-03     74.6594E-03     26.9198E-03     26.9344E-03
            2634               1     73.2766E-03     73.9250E-03     24.6525E-03     24.7348E-03
            2635               1     72.7474E-03     73.4917E-03     22.4235E-03     22.5476E-03
            2636               1     68.3402E-03     69.3081E-03     16.6690E-03     17.0716E-03
            2637               1     62.5411E-03     64.0849E-03     10.1847E-03     10.3882E-03
            2638               1     59.0394E-03     59.7777E-03     236.672E-06     1.01793E-03
            2639               1     58.6066E-03     58.7531E-03     30.7266E-03     30.4389E-03
            2640               1     56.6027E-03     56.8284E-03     28.8899E-03     28.6229E-03
            2641               1     55.9675E-03     56.3555E-03     27.7322E-03     27.5814E-03
            2642               1     56.1858E-03     56.8671E-03     27.1999E-03     27.1504E-03
            2643               1     57.5616E-03     58.0737E-03     27.0585E-03     26.9865E-03
            2644               1     58.7967E-03     59.5051E-03     27.0625E-03     27.0554E-03
            2645               1     60.7939E-03     61.3773E-03     27.2154E-03     27.1844E-03
            2646               1     62.4373E-03     63.1171E-03     27.4161E-03     27.4081E-03
            2647               1     64.7478E-03     65.3775E-03     27.6681E-03     27.6625E-03
            2648               1     66.5340E-03     67.2064E-03     27.9366E-03     27.9176E-03
            2649               1     69.1729E-03     69.8296E-03     28.2310E-03     28.2471E-03
            2650               1     70.8073E-03     71.5159E-03     28.3707E-03     28.3434E-03
            2651               1     73.7895E-03     74.4738E-03     28.5374E-03     28.5868E-03
            2652               1     74.5265E-03     75.3802E-03     27.8394E-03     27.8520E-03
            2653               1     77.3698E-03     78.1795E-03     27.1442E-03     27.2777E-03
            2654               1     75.6348E-03     76.8270E-03     23.3137E-03     23.6103E-03
            2655               1     75.1482E-03     76.4097E-03     19.3678E-03     19.6213E-03
            2656               1     71.9738E-03     73.1216E-03     10.5892E-03     11.2989E-03
            2657               1     68.4798E-03     70.2318E-03     1.50286E-03     1.77683E-03
            2658               1     57.3186E-03     57.3924E-03     29.2848E-03     28.9412E-03
            2659               1     54.8981E-03     55.4254E-03     27.4387E-03     27.2819E-03
            2660               1     54.3998E-03     55.2323E-03     26.7632E-03     26.6691E-03
            2661               1     55.2467E-03     55.8559E-03     26.4953E-03     26.3146E-03
            2662               1     56.1312E-03     57.1001E-03     26.3963E-03     26.3620E-03
            2663               1     57.9636E-03     58.7507E-03     26.5583E-03     26.4541E-03
            2664               1     59.5363E-03     60.5258E-03     26.7713E-03     26.7494E-03
            2665               1     61.7186E-03     62.6381E-03     27.0567E-03     27.0136E-03
            2666               1     63.6169E-03     64.6204E-03     27.4548E-03     27.4295E-03
            2667               1     66.0625E-03     67.0675E-03     27.7976E-03     27.7968E-03
            2668               1     68.0867E-03     69.1147E-03     28.3011E-03     28.2624E-03
            2669               1     70.9094E-03     71.9761E-03     28.6375E-03     28.6812E-03
            2670               1     72.7702E-03     73.8616E-03     28.9833E-03     28.9376E-03
            2671               1     76.2573E-03     77.3875E-03     29.0350E-03     29.1520E-03
            2672               1     77.1796E-03     78.4537E-03     28.1226E-03     28.1631E-03
            2673               1     81.9880E-03     83.1065E-03     26.9462E-03     27.1434E-03
            2674               1     80.6183E-03     82.1590E-03     20.4610E-03     21.0138E-03
            2675               1     81.4172E-03     83.0129E-03     14.1239E-03     14.3871E-03
            2676               1     81.7369E-03     82.4533E-03     2.12872E-03     2.88602E-03
            2677               1     54.1963E-03     55.2028E-03     26.8140E-03     26.8988E-03
            2678               1     52.9837E-03     54.1490E-03     26.2350E-03     26.2528E-03
            2679               1     53.3746E-03     54.0777E-03     25.9617E-03     25.7246E-03
            2680               1     53.7665E-03     54.9675E-03     25.7517E-03     25.7244E-03
            2681               1     55.3240E-03     56.2463E-03     25.9021E-03     25.7203E-03
            2682               1     56.6372E-03     57.8924E-03     26.0192E-03     25.9884E-03
            2683               1     58.6093E-03     59.7670E-03     26.2875E-03     26.1973E-03
            2684               1     60.4274E-03     61.7436E-03     26.6568E-03     26.6288E-03
            2685               1     62.6101E-03     63.9267E-03     26.9718E-03     26.9440E-03
            2686               1     64.7121E-03     66.0760E-03     27.5466E-03     27.5103E-03
            2687               1     67.1231E-03     68.5458E-03     27.8660E-03     27.8866E-03
            2688               1     69.4063E-03     70.8097E-03     28.5891E-03     28.5313E-03
            2689               1     72.3088E-03     73.8208E-03     28.7952E-03     28.8802E-03
            2690               1     74.6938E-03     76.1582E-03     29.4101E-03     29.3308E-03
            2691               1     79.1395E-03     80.6869E-03     29.1908E-03     29.3603E-03
            2692               1     81.3062E-03     82.9073E-03     28.4449E-03     28.4154E-03
            2693               1     91.4074E-03     92.5765E-03     27.0127E-03     27.1750E-03
            2694               1     92.1171E-03     93.4836E-03     15.7334E-03     16.5071E-03
            2695               1     93.0053E-03     95.3732E-03     5.13854E-03     5.44415E-03
            2696               1     51.6728E-03     53.5121E-03     25.4094E-03     25.7171E-03
            2697               1     52.0058E-03     52.9278E-03     25.4362E-03     25.2449E-03
            2698               1     51.8411E-03     53.3030E-03     25.1462E-03     25.1869E-03
            2699               1     53.0927E-03     54.1498E-03     25.3106E-03     25.1019E-03
            2700               1     54.0157E-03     55.4955E-03     25.2865E-03     25.2639E-03
            2701               1     55.6926E-03     57.0623E-03     25.5040E-03     25.3861E-03
            2702               1     57.2912E-03     58.8921E-03     25.7589E-03     25.7344E-03
            2703               1     59.2020E-03     60.8073E-03     26.0188E-03     25.9709E-03
            2704               1     61.2088E-03     62.9110E-03     26.5159E-03     26.4905E-03
            2705               1     63.2556E-03     65.0127E-03     26.7741E-03     26.7707E-03
            2706               1     65.5602E-03     67.3295E-03     27.4894E-03     27.4499E-03
            2707               1     67.7992E-03     69.6697E-03     27.6489E-03     27.6902E-03
            2708               1     70.5028E-03     72.3207E-03     28.5740E-03     28.5020E-03
            2709               1     73.4370E-03     75.4112E-03     28.4474E-03     28.5558E-03
            2710               1     77.0721E-03     78.9401E-03     29.5804E-03     29.4392E-03
            2711               1     83.0120E-03     85.0008E-03     28.8915E-03     29.0635E-03
            2712               1     88.7571E-03     90.6645E-03     29.7842E-03     29.4963E-03
            2713               1     110.532E-03     111.753E-03     28.1947E-03     28.1399E-03
            2714               1     114.343E-03     114.192E-03     6.76758E-03     7.56708E-03
            2715               1     51.5550E-03     52.7610E-03     25.1521E-03     25.0346E-03
            2716               1     50.5916E-03     52.2893E-03     24.6523E-03     24.7763E-03
            2717               1     51.4051E-03     52.6722E-03     24.8014E-03     24.6729E-03
            2718               1     51.8238E-03     53.4990E-03     24.6065E-03     24.6181E-03
            2719               1     53.0730E-03     54.6907E-03     24.7221E-03     24.6471E-03
            2720               1     54.3499E-03     56.2145E-03     24.8332E-03     24.8258E-03
            2721               1     55.9541E-03     57.8583E-03     25.0191E-03     24.9856E-03
            2722               1     57.7797E-03     59.8127E-03     25.3956E-03     25.3867E-03
            2723               1     59.5635E-03     61.6547E-03     25.6106E-03     25.6013E-03
            2724               1     61.7590E-03     63.9101E-03     26.2063E-03     26.1929E-03
            2725               1     63.6104E-03     65.8302E-03     26.3412E-03     26.3505E-03
            2726               1     66.1986E-03     68.4394E-03     27.1325E-03     27.1052E-03
            2727               1     68.1968E-03     70.5329E-03     26.9931E-03     27.0317E-03
            2728               1     71.6454E-03     73.9738E-03     28.0605E-03     27.9956E-03
            2729               1     74.4960E-03     76.9808E-03     27.3267E-03     27.4229E-03
            2730               1     80.5829E-03     83.0364E-03     29.2550E-03     29.0666E-03
            2731               1     87.5535E-03     90.3405E-03     27.3221E-03     27.5169E-03
            2732               1     102.886E-03     105.690E-03     33.2891E-03     32.6442E-03
            2733               1     145.114E-03     149.390E-03     25.8082E-03     25.6416E-03
            2734               1     78.4367E-03     77.4227E-03     40.7803E-03     41.0096E-03
            2735               1     79.1098E-03     78.1524E-03     38.9206E-03     39.2216E-03
            2736               1     80.9516E-03     79.9281E-03     37.9665E-03     38.0989E-03
            2737               1     82.0980E-03     81.1388E-03     36.3794E-03     36.5274E-03
            2738               1     84.0302E-03     83.1182E-03     35.3739E-03     35.4501E-03
            2739               1     85.3787E-03     84.5011E-03     33.8341E-03     33.9077E-03
            2740               1     87.4216E-03     86.5905E-03     32.7879E-03     32.8284E-03
            2741               1     88.6832E-03     87.8635E-03     31.0426E-03     31.0797E-03
            2742               1     90.6356E-03     89.8440E-03     29.8059E-03     29.8262E-03
            2743               1     91.4737E-03     90.6773E-03     27.5547E-03     27.5743E-03
            2744               1     92.9885E-03     92.1995E-03     25.8929E-03     25.8985E-03
            2745               1     93.0052E-03     92.1915E-03     22.7933E-03     22.8011E-03
            2746               1     93.5769E-03     92.7211E-03     20.4066E-03     20.3843E-03
            2747               1     92.3147E-03     91.3636E-03     16.0989E-03     16.0739E-03
            2748               1     91.3255E-03     90.1763E-03     12.6630E-03     12.5574E-03
            2749               1     88.2753E-03     86.7545E-03     6.74291E-03     6.57580E-03
            2750               1     85.3451E-03     83.1012E-03     2.03707E-03     1.63274E-03
            2751               1     80.0631E-03     76.5379E-03    -6.49476E-03    -7.34817E-03
            2752               1     78.2445E-03     71.5683E-03    -11.2356E-03    -14.4542E-03
            2753               1     74.6858E-03     75.0275E-03     37.9641E-03     38.5208E-03
            2754               1     76.4330E-03     76.5598E-03     36.8398E-03     37.2940E-03
            2755               1     78.3296E-03     78.2292E-03     35.4529E-03     35.8642E-03
            2756               1     80.5899E-03     80.3526E-03     34.5907E-03     34.8555E-03
            2757               1     82.4750E-03     82.1729E-03     33.3104E-03     33.5484E-03
            2758               1     84.9576E-03     84.5947E-03     32.4858E-03     32.6303E-03
            2759               1     86.8233E-03     86.4482E-03     31.1320E-03     31.2601E-03
            2760               1     89.4516E-03     89.0466E-03     30.2251E-03     30.2998E-03
            2761               1     91.1438E-03     90.7393E-03     28.5614E-03     28.6270E-03
            2762               1     93.7409E-03     93.3100E-03     27.4045E-03     27.4395E-03
            2763               1     95.0031E-03     94.5733E-03     25.1486E-03     25.1765E-03
            2764               1     97.2276E-03     96.7355E-03     23.5224E-03     23.5118E-03
            2765               1     97.6861E-03     97.1837E-03     20.3611E-03     20.3365E-03
            2766               1     98.9495E-03     98.2945E-03     17.9981E-03     17.8702E-03
            2767               1     98.0091E-03     97.2872E-03     13.6890E-03     13.4915E-03
            2768               1     97.5853E-03     96.5959E-03     10.3495E-03     9.86738E-03
            2769               1     93.8486E-03     92.8173E-03     4.92694E-03     4.14154E-03
            2770               1     91.6020E-03     90.6677E-03     604.611E-06    -1.30386E-03
            2771               1     75.8308E-03     81.5371E-03    -4.32882E-03    -5.44874E-03
            2772               1     72.2682E-03     73.2590E-03     36.3797E-03     36.7421E-03
            2773               1     74.4603E-03     75.0855E-03     34.8974E-03     35.2231E-03
            2774               1     76.3452E-03     76.9251E-03     33.6561E-03     34.0071E-03
            2775               1     78.7916E-03     79.1524E-03     32.5668E-03     32.8833E-03
            2776               1     81.4929E-03     81.7261E-03     31.8377E-03     32.0642E-03
            2777               1     83.9355E-03     84.0915E-03     30.8538E-03     31.0571E-03
            2778               1     87.0164E-03     87.0757E-03     30.2334E-03     30.3588E-03
            2779               1     89.4035E-03     89.4455E-03     29.1242E-03     29.2364E-03
            2780               1     92.7249E-03     92.7019E-03     28.4199E-03     28.4843E-03
            2781               1     94.9173E-03     94.9007E-03     26.9493E-03     27.0015E-03
            2782               1     98.2906E-03     98.2043E-03     25.9863E-03     26.0038E-03
            2783               1     100.009E-03     99.9563E-03     23.8615E-03     23.8623E-03
            2784               1     102.979E-03     102.807E-03     22.4064E-03     22.3348E-03
            2785               1     103.707E-03     103.622E-03     19.3198E-03     19.2187E-03
            2786               1     105.310E-03     105.085E-03     17.0390E-03     16.7332E-03
            2787               1     103.917E-03     103.982E-03     12.9471E-03     12.5884E-03
            2788               1     102.585E-03     102.823E-03     9.38838E-03     8.51052E-03
            2789               1     95.4211E-03     98.1799E-03     4.88322E-03     4.63212E-03
            2790               1     86.7097E-03     87.3200E-03    -3.33397E-03    -2.59707E-03
            2791               1     72.9089E-03     73.2836E-03     35.9856E-03     35.5760E-03
            2792               1     72.5853E-03     73.6595E-03     33.2524E-03     33.4254E-03
            2793               1     74.9723E-03     75.7975E-03     32.0426E-03     32.1783E-03
            2794               1     77.3197E-03     78.1574E-03     31.0139E-03     31.2300E-03
            2795               1     80.1761E-03     80.8659E-03     30.2780E-03     30.4668E-03
            2796               1     83.4208E-03     83.9882E-03     29.7859E-03     29.9258E-03
            2797               1     86.3498E-03     86.8719E-03     29.1374E-03     29.2678E-03
            2798               1     90.0737E-03     90.4907E-03     28.7737E-03     28.8506E-03
            2799               1     92.9576E-03     93.3725E-03     27.9780E-03     28.0461E-03
            2800               1     97.0109E-03     97.3438E-03     27.5420E-03     27.5785E-03
            2801               1     99.6537E-03     100.026E-03     26.3494E-03     26.3695E-03
            2802               1     103.800E-03     104.068E-03     25.6500E-03     25.6357E-03
            2803               1     105.787E-03     106.193E-03     23.6804E-03     23.6550E-03
            2804               1     109.236E-03     109.505E-03     22.3610E-03     22.2267E-03
            2805               1     109.714E-03     110.365E-03     19.1995E-03     19.1170E-03
            2806               1     110.543E-03     111.170E-03     16.5689E-03     16.2061E-03
            2807               1     107.609E-03     109.476E-03     12.0897E-03     12.1416E-03
            2808               1     102.446E-03     103.768E-03     6.37549E-03     6.51949E-03
            2809               1     96.3806E-03     98.7969E-03    -1.74663E-03    -2.02925E-03
            2810               1     71.6260E-03     72.2575E-03     34.1222E-03     33.8157E-03
            2811               1     72.1918E-03     73.0081E-03     32.1744E-03     31.8948E-03
            2812               1     73.2955E-03     74.4799E-03     30.3673E-03     30.4186E-03
            2813               1     76.0416E-03     77.1255E-03     29.6298E-03     29.6628E-03
            2814               1     79.0381E-03     80.0586E-03     29.0077E-03     29.0869E-03
            2815               1     82.2766E-03     83.2587E-03     28.6680E-03     28.7557E-03
            2816               1     86.1127E-03     86.9625E-03     28.4874E-03     28.5373E-03
            2817               1     89.4777E-03     90.3262E-03     28.2095E-03     28.2681E-03
            2818               1     93.8249E-03     94.5743E-03     28.1378E-03     28.1678E-03
            2819               1     97.1321E-03     97.9092E-03     27.7127E-03     27.7336E-03
            2820               1     101.884E-03     102.572E-03     27.5751E-03     27.5900E-03
            2821               1     104.831E-03     105.631E-03     26.6810E-03     26.6777E-03
            2822               1     109.658E-03     110.330E-03     26.2059E-03     26.1862E-03
            2823               1     111.595E-03     112.613E-03     24.1870E-03     24.2053E-03
            2824               1     115.038E-03     115.899E-03     22.6582E-03     22.5746E-03
            2825               1     114.757E-03     116.447E-03     18.6736E-03     18.8560E-03
            2826               1     113.595E-03     115.038E-03     14.5537E-03     14.6529E-03
            2827               1     110.297E-03     112.494E-03     7.58508E-03     7.81854E-03
            2828               1     105.704E-03     108.061E-03    -972.034E-06    -315.849E-06
            2829               1     71.0149E-03     71.5455E-03     32.5986E-03     32.0966E-03
            2830               1     70.4368E-03     71.6091E-03     30.1078E-03     29.9551E-03
            2831               1     72.2510E-03     73.4612E-03     29.1017E-03     28.8772E-03
            2832               1     74.4769E-03     75.7808E-03     28.0934E-03     28.0430E-03
            2833               1     77.6438E-03     78.9879E-03     27.8863E-03     27.8557E-03
            2834               1     81.3048E-03     82.5192E-03     27.7124E-03     27.6832E-03
            2835               1     84.9182E-03     86.1688E-03     27.7733E-03     27.7834E-03
            2836               1     89.2730E-03     90.4091E-03     27.9008E-03     27.8879E-03
            2837               1     93.0107E-03     94.1774E-03     28.0224E-03     28.0232E-03
            2838               1     97.8964E-03     98.9849E-03     28.2367E-03     28.2425E-03
            2839               1     101.525E-03     102.682E-03     28.2156E-03     28.2029E-03
            2840               1     106.924E-03     107.989E-03     28.3425E-03     28.3670E-03
            2841               1     110.014E-03     111.306E-03     27.6671E-03     27.6802E-03
            2842               1     115.534E-03     116.647E-03     27.2420E-03     27.2916E-03
            2843               1     117.190E-03     118.919E-03     24.5898E-03     24.7747E-03
            2844               1     120.403E-03     121.821E-03     22.1990E-03     22.3546E-03
            2845               1     119.765E-03     121.954E-03     15.9882E-03     16.4342E-03
            2846               1     117.825E-03     120.002E-03     9.56576E-03     9.97656E-03
            2847               1     116.761E-03     118.420E-03     229.512E-06     621.727E-06
            2848               1     68.6327E-03     69.8744E-03     29.8682E-03     29.7365E-03
            2849               1     69.2438E-03     70.4410E-03     28.5441E-03     28.1890E-03
            2850               1     70.3162E-03     71.7059E-03     27.1232E-03     26.9462E-03
            2851               1     72.9337E-03     74.5193E-03     26.9118E-03     26.7470E-03
            2852               1     76.1706E-03     77.6175E-03     26.6327E-03     26.4807E-03
            2853               1     79.7479E-03     81.3333E-03     26.8637E-03     26.7935E-03
            2854               1     83.9124E-03     85.3679E-03     27.0551E-03     26.9617E-03
            2855               1     87.8539E-03     89.3820E-03     27.4985E-03     27.4584E-03
            2856               1     92.5812E-03     94.0364E-03     27.8818E-03     27.8443E-03
            2857               1     96.6178E-03     98.1223E-03     28.4244E-03     28.3880E-03
            2858               1     101.935E-03     103.390E-03     28.8740E-03     28.8898E-03
            2859               1     105.821E-03     107.384E-03     29.2705E-03     29.2447E-03
            2860               1     111.918E-03     113.379E-03     29.5629E-03     29.6495E-03
            2861               1     115.137E-03     116.938E-03     28.9539E-03     29.0202E-03
            2862               1     121.916E-03     123.418E-03     28.3434E-03     28.5568E-03
            2863               1     123.520E-03     125.760E-03     24.0742E-03     24.4535E-03
            2864               1     127.193E-03     129.081E-03     20.1263E-03     20.4990E-03
            2865               1     127.546E-03     129.644E-03     10.8567E-03     11.5210E-03
            2866               1     125.458E-03     128.398E-03     1.89828E-03     2.33571E-03
            2867               1     67.1629E-03     68.3254E-03     27.8041E-03     27.5043E-03
            2868               1     66.6514E-03     68.1724E-03     25.8822E-03     25.7549E-03
            2869               1     68.4422E-03     70.2247E-03     25.7070E-03     25.5003E-03
            2870               1     71.1347E-03     72.6860E-03     25.3547E-03     25.0901E-03
            2871               1     74.3876E-03     76.2261E-03     25.6443E-03     25.4982E-03
            2872               1     78.2390E-03     79.9190E-03     25.8282E-03     25.6344E-03
            2873               1     82.1649E-03     84.0052E-03     26.4097E-03     26.3179E-03
            2874               1     86.5954E-03     88.3660E-03     26.8348E-03     26.7322E-03
            2875               1     90.7983E-03     92.6444E-03     27.6494E-03     27.5851E-03
            2876               1     95.7271E-03     97.5512E-03     28.2079E-03     28.1832E-03
            2877               1     100.029E-03     101.903E-03     29.1931E-03     29.1380E-03
            2878               1     105.701E-03     107.553E-03     29.7856E-03     29.8461E-03
            2879               1     109.932E-03     111.903E-03     30.6418E-03     30.6120E-03
            2880               1     117.052E-03     118.894E-03     30.9833E-03     31.1764E-03
            2881               1     120.760E-03     122.969E-03     30.4117E-03     30.5103E-03
            2882               1     130.645E-03     132.384E-03     29.5680E-03     29.9436E-03
            2883               1     132.984E-03     135.479E-03     22.2840E-03     22.9101E-03
            2884               1     137.252E-03     139.612E-03     15.8763E-03     16.2591E-03
            2885               1     139.045E-03     140.516E-03     3.22423E-03     4.08098E-03
            2886               1     63.5166E-03     65.4132E-03     24.1335E-03     24.2794E-03
            2887               1     64.1765E-03     66.2928E-03     24.1290E-03     24.0835E-03
            2888               1     66.4202E-03     68.0142E-03     23.8903E-03     23.5735E-03
            2889               1     69.1325E-03     71.1780E-03     24.1914E-03     24.0425E-03
            2890               1     72.6335E-03     74.4403E-03     24.3896E-03     24.1087E-03
            2891               1     76.3438E-03     78.4362E-03     24.9817E-03     24.8548E-03
            2892               1     80.4264E-03     82.4512E-03     25.3840E-03     25.2169E-03
            2893               1     84.6029E-03     86.7701E-03     26.2629E-03     26.1765E-03
            2894               1     89.0826E-03     91.2480E-03     26.8081E-03     26.7366E-03
            2895               1     93.5048E-03     95.7274E-03     27.9864E-03     27.9189E-03
            2896               1     98.4750E-03     100.719E-03     28.6202E-03     28.6326E-03
            2897               1     103.119E-03     105.387E-03     30.0839E-03     30.0170E-03
            2898               1     109.120E-03     111.393E-03     30.6910E-03     30.8165E-03
            2899               1     114.087E-03     116.420E-03     32.1993E-03     32.1357E-03
            2900               1     122.869E-03     125.067E-03     32.4998E-03     32.8055E-03
            2901               1     128.082E-03     130.540E-03     32.5701E-03     32.5974E-03
            2902               1     145.056E-03     146.815E-03     31.7711E-03     32.2548E-03
            2903               1     148.949E-03     151.352E-03     18.5224E-03     19.4856E-03
            2904               1     150.347E-03     153.662E-03     7.46071E-03     7.66798E-03
            2905               1     60.1222E-03     62.7719E-03     22.0608E-03     22.3614E-03
            2906               1     62.1985E-03     63.8455E-03     22.2835E-03     22.0056E-03
            2907               1     64.2140E-03     66.4278E-03     22.5662E-03     22.5138E-03
            2908               1     67.3531E-03     69.2252E-03     22.8393E-03     22.5419E-03
            2909               1     70.6930E-03     72.9727E-03     23.3670E-03     23.2534E-03
            2910               1     74.3920E-03     76.6216E-03     23.7204E-03     23.5303E-03
            2911               1     78.3925E-03     80.8490E-03     24.5448E-03     24.4587E-03
            2912               1     82.4537E-03     84.9370E-03     25.0220E-03     24.9267E-03
            2913               1     86.8142E-03     89.4023E-03     26.1719E-03     26.1110E-03
            2914               1     91.1779E-03     93.8071E-03     26.7468E-03     26.7217E-03
            2915               1     95.8527E-03     98.5112E-03     28.2730E-03     28.2149E-03
            2916               1     100.724E-03     103.426E-03     28.8632E-03     28.9124E-03
            2917               1     105.962E-03     108.646E-03     30.8582E-03     30.7783E-03
            2918               1     112.229E-03     114.941E-03     31.3083E-03     31.4791E-03
            2919               1     118.780E-03     121.449E-03     33.9220E-03     33.7813E-03
            2920               1     129.705E-03     132.271E-03     33.9929E-03     34.3576E-03
            2921               1     138.823E-03     141.422E-03     36.8009E-03     36.5866E-03
            2922               1     170.843E-03     172.496E-03     36.1162E-03     36.6072E-03
            2923               1     174.446E-03     175.753E-03     9.92096E-03     11.2235E-03
            2924               1     58.9181E-03     60.5208E-03     20.8115E-03     20.6345E-03
            2925               1     60.0400E-03     62.2559E-03     20.9230E-03     21.0152E-03
            2926               1     62.6366E-03     64.5259E-03     21.2518E-03     21.0807E-03
            2927               1     65.4670E-03     67.8525E-03     21.6563E-03     21.6267E-03
            2928               1     68.6770E-03     71.0935E-03     21.9151E-03     21.8074E-03
            2929               1     72.3756E-03     75.0933E-03     22.6306E-03     22.5916E-03
            2930               1     76.0285E-03     78.8293E-03     23.0087E-03     22.9522E-03
            2931               1     80.2163E-03     83.1755E-03     24.0464E-03     24.0180E-03
            2932               1     84.1362E-03     87.1585E-03     24.5447E-03     24.5225E-03
            2933               1     88.6836E-03     91.7785E-03     25.9323E-03     25.9076E-03
            2934               1     92.8335E-03     95.9686E-03     26.4679E-03     26.4749E-03
            2935               1     97.8960E-03     101.055E-03     28.2868E-03     28.2513E-03
            2936               1     102.542E-03     105.724E-03     28.6996E-03     28.7528E-03
            2937               1     108.815E-03     111.983E-03     31.2182E-03     31.1404E-03
            2938               1     115.019E-03     118.199E-03     31.2284E-03     31.3821E-03
            2939               1     124.645E-03     127.764E-03     35.4610E-03     35.2469E-03
            2940               1     136.509E-03     139.692E-03     34.4103E-03     34.7854E-03
            2941               1     157.256E-03     160.267E-03     44.9711E-03     44.3436E-03
            2942               1     214.692E-03     218.294E-03     36.9164E-03     37.6210E-03
            2943               1     94.9025E-03     93.4437E-03     45.4538E-03     45.7783E-03
            2944               1     97.2698E-03     95.9744E-03     43.1328E-03     43.4827E-03
            2945               1     100.885E-03     99.7542E-03     41.8785E-03     42.0818E-03
            2946               1     103.753E-03     102.803E-03     39.8253E-03     40.0147E-03
            2947               1     107.559E-03     106.804E-03     38.5238E-03     38.6430E-03
            2948               1     110.648E-03     110.019E-03     36.4562E-03     36.5562E-03
            2949               1     114.601E-03     114.108E-03     35.0767E-03     35.1398E-03
            2950               1     117.594E-03     117.177E-03     32.6800E-03     32.7324E-03
            2951               1     121.466E-03     121.130E-03     31.0373E-03     31.0674E-03
            2952               1     124.022E-03     123.729E-03     27.9344E-03     27.9644E-03
            2953               1     127.476E-03     127.216E-03     25.7583E-03     25.7637E-03
            2954               1     129.236E-03     128.993E-03     21.5076E-03     21.5255E-03
            2955               1     131.846E-03     131.553E-03     18.4657E-03     18.4257E-03
            2956               1     132.487E-03     132.136E-03     12.5604E-03     12.5477E-03
            2957               1     133.922E-03     133.301E-03     8.31795E-03     8.15159E-03
            2958               1     133.341E-03     132.362E-03     21.6464E-06    -134.472E-06
            2959               1     134.297E-03     132.402E-03    -5.53964E-03    -6.12639E-03
            2960               1     133.676E-03     130.398E-03    -18.5400E-03    -19.4463E-03
            2961               1     146.741E-03     139.359E-03    -22.5052E-03    -26.6421E-03
            2962               1     90.4986E-03     90.9556E-03     41.6862E-03     42.3028E-03
            2963               1     94.1829E-03     94.5613E-03     40.2466E-03     40.8722E-03
            2964               1     98.0425E-03     98.1632E-03     38.4689E-03     38.9888E-03
            2965               1     102.301E-03     102.385E-03     37.3410E-03     37.7374E-03
            2966               1     106.091E-03     106.127E-03     35.6376E-03     35.9578E-03
            2967               1     110.628E-03     110.666E-03     34.5373E-03     34.7601E-03
            2968               1     114.368E-03     114.424E-03     32.6737E-03     32.8520E-03
            2969               1     119.100E-03     119.163E-03     31.4429E-03     31.5574E-03
            2970               1     122.640E-03     122.737E-03     29.1206E-03     29.2159E-03
            2971               1     127.404E-03     127.487E-03     27.5584E-03     27.6074E-03
            2972               1     130.502E-03     130.625E-03     24.4173E-03     24.4654E-03
            2973               1     135.014E-03     135.054E-03     22.2724E-03     22.2479E-03
            2974               1     137.343E-03     137.425E-03     17.9043E-03     17.8927E-03
            2975               1     141.216E-03     141.077E-03     14.8829E-03     14.6851E-03
            2976               1     142.290E-03     142.167E-03     8.95366E-03     8.74287E-03
            2977               1     145.605E-03     145.080E-03     4.81597E-03     4.13563E-03
            2978               1     144.174E-03     143.788E-03    -2.53293E-03    -3.45198E-03
            2979               1     150.828E-03     150.399E-03    -7.70665E-03    -10.1767E-03
            2980               1     134.406E-03     141.753E-03    -7.66391E-03    -9.35079E-03
            2981               1     87.3507E-03     88.9482E-03     39.2458E-03     39.6589E-03
            2982               1     91.8255E-03     93.0434E-03     37.4176E-03     37.8302E-03
            2983               1     95.9305E-03     97.0994E-03     35.9417E-03     36.4490E-03
            2984               1     100.479E-03     101.381E-03     34.5270E-03     34.9524E-03
            2985               1     105.370E-03     106.149E-03     33.5809E-03     33.9261E-03
            2986               1     109.829E-03     110.516E-03     32.2281E-03     32.5088E-03
            2987               1     115.140E-03     115.734E-03     31.3684E-03     31.5622E-03
            2988               1     119.493E-03     120.077E-03     29.7939E-03     29.9526E-03
            2989               1     125.126E-03     125.639E-03     28.7972E-03     28.8934E-03
            2990               1     129.251E-03     129.797E-03     26.7065E-03     26.7867E-03
            2991               1     135.074E-03     135.521E-03     25.3699E-03     25.3885E-03
            2992               1     138.719E-03     139.255E-03     22.4052E-03     22.4218E-03
            2993               1     144.398E-03     144.744E-03     20.4675E-03     20.3498E-03
            2994               1     147.105E-03     147.647E-03     16.3055E-03     16.1956E-03
            2995               1     152.048E-03     152.332E-03     13.4205E-03     12.9716E-03
            2996               1     152.747E-03     153.537E-03     8.35452E-03     7.90543E-03
            2997               1     156.553E-03     157.399E-03     4.14987E-03     2.95337E-03
            2998               1     151.359E-03     155.292E-03     1.69107E-03     1.15578E-03
            2999               1     142.185E-03     143.701E-03    -5.86038E-03    -4.99952E-03
            3000               1     87.3555E-03     88.6611E-03     37.9004E-03     37.4651E-03
            3001               1     89.6317E-03     91.5480E-03     34.9774E-03     35.2207E-03
            3002               1     94.3471E-03     95.9998E-03     33.5254E-03     33.7413E-03
            3003               1     99.0724E-03     100.655E-03     32.3384E-03     32.6670E-03
            3004               1     104.096E-03     105.488E-03     31.3624E-03     31.6296E-03
            3005               1     109.678E-03     110.897E-03     30.7122E-03     30.9301E-03
            3006               1     114.684E-03     115.837E-03     29.7758E-03     29.9583E-03
            3007               1     120.803E-03     121.818E-03     29.2275E-03     29.3464E-03
            3008               1     125.712E-03     126.730E-03     28.0550E-03     28.1540E-03
            3009               1     132.295E-03     133.192E-03     27.3862E-03     27.4370E-03
            3010               1     136.936E-03     137.913E-03     25.6839E-03     25.7216E-03
            3011               1     143.842E-03     144.648E-03     24.6820E-03     24.6503E-03
            3012               1     147.856E-03     148.901E-03     22.0511E-03     22.0268E-03
            3013               1     154.438E-03     155.234E-03     20.3431E-03     20.1321E-03
            3014               1     157.065E-03     158.446E-03     16.5754E-03     16.4505E-03
            3015               1     161.558E-03     162.787E-03     13.5265E-03     12.9910E-03
            3016               1     160.912E-03     163.738E-03     9.70380E-03     9.62129E-03
            3017               1     157.321E-03     159.462E-03     4.15191E-03     4.24001E-03
            3018               1     151.479E-03     154.803E-03    -2.91002E-03    -3.45930E-03
            3019               1     85.7829E-03     87.3508E-03     35.1178E-03     34.7704E-03
            3020               1     88.8421E-03     90.7236E-03     33.0241E-03     32.7621E-03
            3021               1     92.5595E-03     94.6785E-03     31.1266E-03     31.2313E-03
            3022               1     97.6373E-03     99.6328E-03     30.2659E-03     30.3453E-03
            3023               1     103.094E-03     104.909E-03     29.5636E-03     29.6969E-03
            3024               1     108.521E-03     110.260E-03     29.0903E-03     29.2149E-03
            3025               1     114.804E-03     116.343E-03     28.8226E-03     28.9060E-03
            3026               1     120.279E-03     121.799E-03     28.3759E-03     28.4576E-03
            3027               1     127.175E-03     128.544E-03     28.1977E-03     28.2435E-03
            3028               1     132.545E-03     133.960E-03     27.5462E-03     27.5805E-03
            3029               1     140.049E-03     141.310E-03     27.2711E-03     27.2858E-03
            3030               1     145.060E-03     146.509E-03     26.0750E-03     26.0769E-03
            3031               1     152.945E-03     154.164E-03     25.4202E-03     25.3756E-03
            3032               1     157.056E-03     158.792E-03     23.0713E-03     23.0784E-03
            3033               1     163.777E-03     165.217E-03     21.3276E-03     21.1745E-03
            3034               1     165.844E-03     168.404E-03     17.4096E-03     17.5460E-03
            3035               1     166.898E-03     169.078E-03     13.2495E-03     13.2847E-03
            3036               1     165.090E-03     168.225E-03     6.81937E-03     6.95201E-03
            3037               1     159.805E-03     163.393E-03    -1.64381E-03    -936.425E-06
            3038               1     84.7719E-03     86.3821E-03     32.5986E-03     32.0966E-03
            3039               1     86.8985E-03     89.1182E-03     30.1078E-03     29.9551E-03
            3040               1     91.1907E-03     93.4928E-03     29.1017E-03     28.8772E-03
            3041               1     96.0183E-03     98.2425E-03     28.0934E-03     28.0430E-03
            3042               1     101.479E-03     103.719E-03     27.8863E-03     27.8557E-03
            3043               1     107.637E-03     109.636E-03     27.7124E-03     27.6832E-03
            3044               1     113.440E-03     115.446E-03     27.7733E-03     27.7834E-03
            3045               1     120.328E-03     122.153E-03     27.9008E-03     27.8879E-03
            3046               1     126.189E-03     128.040E-03     28.0224E-03     28.0232E-03
            3047               1     133.762E-03     135.473E-03     28.2367E-03     28.2425E-03
            3048               1     139.485E-03     141.306E-03     28.2156E-03     28.2029E-03
            3049               1     147.839E-03     149.483E-03     28.3425E-03     28.3670E-03
            3050               1     153.076E-03     155.068E-03     27.6671E-03     27.6802E-03
            3051               1     161.854E-03     163.538E-03     27.2420E-03     27.2916E-03
            3052               1     165.842E-03     168.380E-03     24.5898E-03     24.7747E-03
            3053               1     171.863E-03     173.934E-03     22.1990E-03     22.3546E-03
            3054               1     173.287E-03     176.406E-03     15.9882E-03     16.4342E-03
            3055               1     172.057E-03     175.191E-03     9.56576E-03     9.97657E-03
            3056               1     171.415E-03     173.846E-03     229.515E-06     621.730E-06
            3057               1     82.1117E-03     84.4564E-03     28.8725E-03     28.7818E-03
            3058               1     85.3276E-03     87.6934E-03     27.6944E-03     27.3217E-03
            3059               1     89.1017E-03     91.4806E-03     26.3640E-03     26.1335E-03
            3060               1     94.0920E-03     96.6771E-03     26.2757E-03     26.0645E-03
            3061               1     99.8745E-03     102.180E-03     26.0769E-03     25.8707E-03
            3062               1     105.713E-03     108.130E-03     26.4414E-03     26.3342E-03
            3063               1     112.387E-03     114.596E-03     26.7199E-03     26.5930E-03
            3064               1     118.509E-03     120.772E-03     27.3321E-03     27.2689E-03
            3065               1     125.830E-03     127.963E-03     27.8219E-03     27.7686E-03
            3066               1     131.992E-03     134.189E-03     28.5910E-03     28.5411E-03
            3067               1     140.104E-03     142.182E-03     29.1780E-03     29.1940E-03
            3068               1     146.112E-03     148.368E-03     29.8765E-03     29.8455E-03
            3069               1     155.330E-03     157.378E-03     30.3486E-03     30.4601E-03
            3070               1     160.766E-03     163.317E-03     30.0696E-03     30.1471E-03
            3071               1     170.926E-03     173.027E-03     29.6740E-03     29.9570E-03
            3072               1     174.842E-03     177.965E-03     25.3382E-03     25.7635E-03
            3073               1     180.726E-03     183.359E-03     21.4305E-03     21.8672E-03
            3074               1     182.422E-03     185.462E-03     11.6225E-03     12.3876E-03
            3075               1     179.558E-03     183.732E-03     2.57006E-03     2.95629E-03
            3076               1     80.3082E-03     82.6438E-03     25.8893E-03     25.6152E-03
            3077               1     82.5886E-03     85.0795E-03     24.1572E-03     23.9597E-03
            3078               1     86.7554E-03     89.5618E-03     24.2243E-03     23.9374E-03
            3079               1     92.0183E-03     94.4442E-03     24.0302E-03     23.6531E-03
            3080               1     97.5830E-03     100.288E-03     24.5599E-03     24.3354E-03
            3081               1     103.920E-03     106.391E-03     24.9019E-03     24.6301E-03
            3082               1     110.078E-03     112.690E-03     25.7712E-03     25.6274E-03
            3083               1     117.010E-03     119.507E-03     26.3810E-03     26.2364E-03
            3084               1     123.373E-03     125.943E-03     27.5725E-03     27.4772E-03
            3085               1     130.915E-03     133.415E-03     28.3637E-03     28.3247E-03
            3086               1     137.337E-03     139.916E-03     29.8587E-03     29.7860E-03
            3087               1     145.861E-03     148.343E-03     30.7535E-03     30.8315E-03
            3088               1     152.231E-03     154.919E-03     32.2711E-03     32.2402E-03
            3089               1     162.627E-03     165.064E-03     33.0013E-03     33.2711E-03
            3090               1     168.543E-03     171.531E-03     33.0358E-03     33.1769E-03
            3091               1     182.261E-03     184.621E-03     32.6104E-03     33.1587E-03
            3092               1     186.696E-03     190.161E-03     24.6699E-03     25.4304E-03
            3093               1     192.348E-03     195.538E-03     18.0999E-03     18.5386E-03
            3094               1     194.144E-03     196.523E-03     4.38762E-03     5.51104E-03
            3095               1     76.7174E-03     79.4639E-03     21.2674E-03     21.3626E-03
            3096               1     79.6171E-03     82.6565E-03     21.6087E-03     21.4764E-03
            3097               1     84.3947E-03     86.7883E-03     21.6046E-03     21.1316E-03
            3098               1     89.4333E-03     92.2942E-03     22.2312E-03     21.9734E-03
            3099               1     95.3847E-03     97.9658E-03     22.6465E-03     22.2468E-03
            3100               1     101.370E-03     104.232E-03     23.6074E-03     23.4032E-03
            3101               1     107.876E-03     110.650E-03     24.2490E-03     24.0135E-03
            3102               1     114.246E-03     117.159E-03     25.5933E-03     25.4603E-03
            3103               1     121.179E-03     124.067E-03     26.4308E-03     26.3275E-03
            3104               1     127.730E-03     130.685E-03     28.2292E-03     28.1336E-03
            3105               1     135.271E-03     138.204E-03     29.2366E-03     29.2478E-03
            3106               1     142.023E-03     145.014E-03     31.5402E-03     31.4574E-03
            3107               1     150.873E-03     153.788E-03     32.6300E-03     32.8015E-03
            3108               1     157.983E-03     161.040E-03     35.2137E-03     35.1588E-03
            3109               1     170.296E-03     173.079E-03     36.1183E-03     36.5671E-03
            3110               1     177.658E-03     180.880E-03     37.1627E-03     37.2804E-03
            3111               1     199.874E-03     202.230E-03     37.0097E-03     37.8119E-03
            3112               1     205.215E-03     208.792E-03     21.7146E-03     22.9619E-03
            3113               1     205.825E-03     210.049E-03     9.98713E-03     10.0704E-03
            3114               1     72.8539E-03     76.1155E-03     18.3387E-03     18.5794E-03
            3115               1     77.2876E-03     79.5054E-03     18.8767E-03     18.4275E-03
            3116               1     81.5991E-03     84.4380E-03     19.5502E-03     19.3892E-03
            3117               1     87.1239E-03     89.6614E-03     20.0890E-03     19.6600E-03
            3118               1     92.7687E-03     95.7463E-03     21.0398E-03     20.8440E-03
            3119               1     98.8272E-03     101.783E-03     21.6689E-03     21.4005E-03
            3120               1     105.048E-03     108.248E-03     23.0031E-03     22.8668E-03
            3121               1     111.439E-03     114.674E-03     23.8043E-03     23.6691E-03
            3122               1     117.938E-03     121.288E-03     25.6126E-03     25.5221E-03
            3123               1     124.643E-03     128.021E-03     26.5929E-03     26.5537E-03
            3124               1     131.411E-03     134.830E-03     29.0043E-03     28.9260E-03
            3125               1     138.726E-03     142.147E-03     30.1131E-03     30.1763E-03
            3126               1     146.073E-03     149.497E-03     33.3149E-03     33.2221E-03
            3127               1     155.110E-03     158.474E-03     34.4234E-03     34.6642E-03
            3128               1     163.882E-03     167.243E-03     38.6574E-03     38.5300E-03
            3129               1     178.657E-03     181.755E-03     39.5265E-03     40.0893E-03
            3130               1     190.128E-03     193.363E-03     44.2608E-03     44.1801E-03
            3131               1     230.824E-03     232.881E-03     44.4276E-03     45.4801E-03
            3132               1     233.022E-03     235.969E-03     13.2561E-03     15.1256E-03
            3133               1     71.2081E-03     72.8620E-03     16.1379E-03     15.8658E-03
            3134               1     74.6040E-03     77.0344E-03     16.7108E-03     16.7541E-03
            3135               1     79.4793E-03     81.7591E-03     17.3399E-03     17.0978E-03
            3136               1     84.6269E-03     87.5345E-03     18.2104E-03     18.1393E-03
            3137               1     90.1493E-03     93.1915E-03     18.7651E-03     18.6145E-03
            3138               1     96.0808E-03     99.4986E-03     20.0085E-03     19.9431E-03
            3139               1     101.978E-03     105.526E-03     20.7199E-03     20.6407E-03
            3140               1     108.301E-03     112.042E-03     22.4089E-03     22.3652E-03
            3141               1     114.396E-03     118.214E-03     23.3133E-03     23.2813E-03
            3142               1     121.011E-03     124.916E-03     25.5526E-03     25.5175E-03
            3143               1     127.310E-03     131.244E-03     26.6024E-03     26.6097E-03
            3144               1     134.435E-03     138.398E-03     29.5725E-03     29.5269E-03
            3145               1     141.297E-03     145.239E-03     30.6405E-03     30.7114E-03
            3146               1     149.750E-03     153.673E-03     34.7568E-03     34.6666E-03
            3147               1     158.470E-03     162.302E-03     35.5734E-03     35.7879E-03
            3148               1     170.730E-03     174.456E-03     42.1823E-03     41.9572E-03
            3149               1     186.279E-03     189.842E-03     41.9870E-03     42.5445E-03
            3150               1     211.574E-03     214.737E-03     57.0164E-03     56.4417E-03
            3151               1     283.219E-03     286.110E-03     48.1861E-03     49.8089E-03
            3152               1     106.030E-03     104.244E-03     44.2646E-03     44.6419E-03
            3153               1     110.870E-03     109.640E-03     41.9848E-03     42.4101E-03
            3154               1     116.409E-03     115.388E-03     40.5769E-03     40.7678E-03
            3155               1     121.970E-03     121.321E-03     39.0170E-03     39.2096E-03
            3156               1     127.895E-03     127.354E-03     37.8255E-03     37.9015E-03
            3157               1     133.954E-03     133.581E-03     36.5662E-03     36.6290E-03
            3158               1     140.008E-03     139.646E-03     35.2701E-03     35.2909E-03
            3159               1     146.213E-03     145.930E-03     33.9376E-03     33.9567E-03
            3160               1     152.056E-03     151.735E-03     32.1603E-03     32.1607E-03
            3161               1     158.044E-03     157.802E-03     30.3695E-03     30.3876E-03
            3162               1     163.293E-03     162.994E-03     27.6104E-03     27.6082E-03
            3163               1     168.598E-03     168.422E-03     24.8272E-03     24.8572E-03
            3164               1     172.834E-03     172.586E-03     20.3820E-03     20.3831E-03
            3165               1     176.590E-03     176.488E-03     15.6643E-03     15.6849E-03
            3166               1     179.617E-03     179.335E-03     8.88591E-03     8.84166E-03
            3167               1     180.653E-03     180.353E-03     487.035E-06     392.026E-06
            3168               1     183.804E-03     182.727E-03    -8.27493E-03    -8.69599E-03
            3169               1     183.475E-03     181.479E-03    -24.4747E-03    -25.1759E-03
            3170               1     206.864E-03     200.823E-03    -29.9334E-03    -33.9058E-03
            3171               1     101.209E-03     102.317E-03     39.3883E-03     40.2178E-03
            3172               1     106.975E-03     107.712E-03     37.8063E-03     38.4524E-03
            3173               1     113.290E-03     113.896E-03     36.3901E-03     36.9751E-03
            3174               1     119.542E-03     120.024E-03     35.4722E-03     35.7907E-03
            3175               1     126.109E-03     126.530E-03     34.4559E-03     34.6907E-03
            3176               1     132.561E-03     132.976E-03     33.5662E-03     33.6846E-03
            3177               1     139.402E-03     139.808E-03     32.6073E-03     32.6768E-03
            3178               1     145.924E-03     146.326E-03     31.4549E-03     31.4798E-03
            3179               1     152.913E-03     153.351E-03     30.2600E-03     30.2970E-03
            3180               1     159.322E-03     159.732E-03     28.5421E-03     28.5339E-03
            3181               1     166.317E-03     166.788E-03     26.8070E-03     26.8662E-03
            3182               1     172.447E-03     172.878E-03     24.0306E-03     24.0212E-03
            3183               1     179.048E-03     179.512E-03     21.2982E-03     21.3621E-03
            3184               1     184.943E-03     185.362E-03     16.6224E-03     16.6072E-03
            3185               1     189.581E-03     189.957E-03     12.0586E-03     11.9572E-03
            3186               1     196.274E-03     196.460E-03     4.79676E-03     4.54226E-03
            3187               1     195.415E-03     195.846E-03    -2.35294E-03    -3.16449E-03
            3188               1     209.586E-03     209.580E-03    -11.2473E-03    -13.1605E-03
            3189               1     188.674E-03     196.506E-03    -6.42172E-03    -8.37115E-03
            3190               1     96.7777E-03     99.2489E-03     35.1977E-03     35.5603E-03
            3191               1     103.549E-03     105.843E-03     33.5686E-03     34.1559E-03
            3192               1     109.951E-03     111.846E-03     32.5564E-03     32.9591E-03
            3193               1     117.108E-03     118.610E-03     31.7745E-03     32.1186E-03
            3194               1     123.906E-03     125.319E-03     31.2647E-03     31.4694E-03
            3195               1     131.302E-03     132.504E-03     30.7203E-03     30.8374E-03
            3196               1     138.303E-03     139.505E-03     30.1448E-03     30.2118E-03
            3197               1     145.919E-03     147.068E-03     29.5272E-03     29.5701E-03
            3198               1     153.045E-03     154.188E-03     28.6995E-03     28.6990E-03
            3199               1     160.946E-03     162.106E-03     27.8523E-03     27.9057E-03
            3200               1     168.133E-03     169.269E-03     26.5306E-03     26.5028E-03
            3201               1     176.377E-03     177.514E-03     25.3221E-03     25.4012E-03
            3202               1     183.641E-03     184.784E-03     22.9086E-03     22.8743E-03
            3203               1     191.823E-03     192.872E-03     21.1345E-03     21.1504E-03
            3204               1     199.521E-03     200.709E-03     16.1765E-03     16.1062E-03
            3205               1     204.488E-03     205.771E-03     13.5075E-03     13.1421E-03
            3206               1     213.452E-03     214.977E-03     5.05853E-03     4.60234E-03
            3207               1     207.619E-03     212.338E-03     5.86302E-03     5.03129E-03
            3208               1     196.606E-03     198.858E-03    -4.48339E-03    -3.02397E-03
            3209               1     94.5707E-03     98.0086E-03     31.7163E-03     31.6210E-03
            3210               1     100.026E-03     103.129E-03     29.6308E-03     29.6886E-03
            3211               1     107.235E-03     109.867E-03     28.7856E-03     28.9403E-03
            3212               1     114.125E-03     116.662E-03     28.3939E-03     28.5424E-03
            3213               1     121.999E-03     124.066E-03     28.2168E-03     28.2721E-03
            3214               1     129.304E-03     131.395E-03     28.0720E-03     28.1455E-03
            3215               1     137.344E-03     139.244E-03     27.9598E-03     27.9752E-03
            3216               1     144.888E-03     146.809E-03     27.7977E-03     27.8080E-03
            3217               1     153.194E-03     155.075E-03     27.6297E-03     27.6598E-03
            3218               1     160.934E-03     162.805E-03     27.3762E-03     27.3418E-03
            3219               1     169.747E-03     171.610E-03     27.1813E-03     27.2471E-03
            3220               1     177.669E-03     179.527E-03     26.6187E-03     26.5520E-03
            3221               1     187.340E-03     189.122E-03     26.5215E-03     26.6027E-03
            3222               1     195.396E-03     197.317E-03     24.7325E-03     24.6607E-03
            3223               1     205.855E-03     207.636E-03     24.9022E-03     24.8994E-03
            3224               1     213.559E-03     215.901E-03     18.8568E-03     18.9190E-03
            3225               1     218.388E-03     221.622E-03     19.0597E-03     18.8334E-03
            3226               1     216.598E-03     219.566E-03     8.01138E-03     9.10232E-03
            3227               1     205.588E-03     210.616E-03     1.42663E-03     554.657E-06
            3228               1     92.1293E-03     95.3286E-03     27.2971E-03     26.7088E-03
            3229               1     97.4358E-03     100.834E-03     25.7673E-03     25.4983E-03
            3230               1     103.841E-03     107.289E-03     25.2134E-03     25.0773E-03
            3231               1     111.864E-03     114.691E-03     25.2564E-03     25.0570E-03
            3232               1     119.245E-03     122.201E-03     25.3202E-03     25.2992E-03
            3233               1     127.568E-03     130.203E-03     25.6066E-03     25.5154E-03
            3234               1     135.324E-03     138.041E-03     25.8654E-03     25.8601E-03
            3235               1     143.789E-03     146.404E-03     26.1914E-03     26.1748E-03
            3236               1     151.781E-03     154.418E-03     26.6053E-03     26.5747E-03
            3237               1     160.596E-03     163.213E-03     27.0442E-03     27.0787E-03
            3238               1     168.793E-03     171.398E-03     27.6405E-03     27.5642E-03
            3239               1     178.409E-03     180.976E-03     28.4081E-03     28.4850E-03
            3240               1     186.713E-03     189.322E-03     28.9730E-03     28.8576E-03
            3241               1     198.147E-03     200.623E-03     30.4518E-03     30.5713E-03
            3242               1     205.915E-03     208.732E-03     29.5358E-03     29.5148E-03
            3243               1     220.652E-03     223.316E-03     31.9216E-03     32.1159E-03
            3244               1     224.111E-03     227.702E-03     22.5942E-03     23.5220E-03
            3245               1     226.458E-03     230.414E-03     18.8396E-03     18.6476E-03
            3246               1     220.521E-03     224.165E-03     2.77330E-03     4.69713E-03
            3247               1     88.7449E-03     92.4184E-03     22.0981E-03     21.7648E-03
            3248               1     93.9855E-03     97.8347E-03     21.8223E-03     21.3929E-03
            3249               1     101.568E-03     104.780E-03     22.0249E-03     21.4368E-03
            3250               1     108.681E-03     112.274E-03     22.1030E-03     21.8955E-03
            3251               1     117.070E-03     120.305E-03     22.6699E-03     22.3772E-03
            3252               1     124.853E-03     128.305E-03     23.1111E-03     23.0445E-03
            3253               1     133.349E-03     136.671E-03     23.7686E-03     23.6724E-03
            3254               1     141.408E-03     144.818E-03     24.5187E-03     24.4876E-03
            3255               1     150.043E-03     153.418E-03     25.3380E-03     25.3337E-03
            3256               1     158.278E-03     161.668E-03     26.4952E-03     26.4342E-03
            3257               1     167.321E-03     170.692E-03     27.6754E-03     27.7205E-03
            3258               1     175.680E-03     179.046E-03     29.3811E-03     29.2595E-03
            3259               1     185.887E-03     189.193E-03     31.2488E-03     31.3557E-03
            3260               1     194.115E-03     197.503E-03     33.3960E-03     33.2493E-03
            3261               1     207.804E-03     211.014E-03     36.3283E-03     36.5877E-03
            3262               1     214.444E-03     218.103E-03     37.0419E-03     37.2034E-03
            3263               1     237.893E-03     240.773E-03     39.8139E-03     40.3251E-03
            3264               1     238.990E-03     243.494E-03     22.0954E-03     23.9016E-03
            3265               1     234.430E-03     239.271E-03     10.4871E-03     10.2056E-03
            3266               1     84.6609E-03     88.4871E-03     17.6387E-03     17.3745E-03
            3267               1     91.7915E-03     94.8343E-03     18.4374E-03     17.6427E-03
            3268               1     98.2925E-03     102.068E-03     18.5779E-03     18.2400E-03
            3269               1     106.412E-03     109.979E-03     19.3471E-03     18.8720E-03
            3270               1     114.026E-03     118.043E-03     19.7993E-03     19.6582E-03
            3271               1     122.407E-03     126.363E-03     20.6371E-03     20.4593E-03
            3272               1     130.408E-03     134.559E-03     21.4826E-03     21.4410E-03
            3273               1     138.826E-03     142.951E-03     22.4962E-03     22.4558E-03
            3274               1     146.966E-03     151.158E-03     23.8205E-03     23.7861E-03
            3275               1     155.462E-03     159.634E-03     25.1810E-03     25.1946E-03
            3276               1     163.674E-03     167.865E-03     27.1936E-03     27.1145E-03
            3277               1     172.544E-03     176.701E-03     29.1281E-03     29.1819E-03
            3278               1     180.826E-03     185.000E-03     32.1496E-03     32.0055E-03
            3279               1     191.160E-03     195.247E-03     34.8708E-03     35.0250E-03
            3280               1     199.563E-03     203.724E-03     39.2691E-03     39.1218E-03
            3281               1     215.467E-03     219.290E-03     42.4969E-03     42.9091E-03
            3282               1     224.352E-03     228.555E-03     47.5572E-03     47.6625E-03
            3283               1     267.753E-03     270.345E-03     49.7460E-03     50.7037E-03
            3284               1     264.213E-03     268.339E-03     13.9879E-03     16.4329E-03
            3285               1     83.0174E-03     85.0421E-03     14.5145E-03     14.0368E-03
            3286               1     88.6609E-03     91.9531E-03     14.7315E-03     14.6014E-03
            3287               1     96.1521E-03     99.6717E-03     15.6902E-03     15.3613E-03
            3288               1     103.384E-03     107.724E-03     16.1201E-03     16.0225E-03
            3289               1     111.429E-03     115.930E-03     17.0039E-03     16.8673E-03
            3290               1     119.276E-03     124.125E-03     17.8112E-03     17.7789E-03
            3291               1     127.443E-03     132.317E-03     18.8633E-03     18.8244E-03
            3292               1     135.431E-03     140.431E-03     20.1352E-03     20.1234E-03
            3293               1     143.521E-03     148.491E-03     21.5134E-03     21.5109E-03
            3294               1     151.477E-03     156.512E-03     23.4222E-03     23.3998E-03
            3295               1     159.485E-03     164.467E-03     25.3152E-03     25.3298E-03
            3296               1     167.445E-03     172.509E-03     28.1757E-03     28.1211E-03
            3297               1     175.633E-03     180.608E-03     30.7168E-03     30.7671E-03
            3298               1     184.044E-03     189.132E-03     35.1112E-03     35.0042E-03
            3299               1     193.515E-03     198.422E-03     38.0195E-03     38.1894E-03
            3300               1     204.539E-03     209.504E-03     45.4531E-03     45.2466E-03
            3301               1     220.355E-03     224.981E-03     47.2171E-03     47.7459E-03
            3302               1     244.298E-03     248.622E-03     64.1291E-03     63.6015E-03
            3303               1     321.656E-03     325.381E-03     54.8638E-03     56.7066E-03
            3304               1     350.409E-03     353.468E-03     58.7576E-03     56.7298E-03
            3305               1     251.778E-03     250.066E-03     68.6037E-03     66.4124E-03
            3306               1     214.947E-03     211.637E-03     50.3694E-03     50.3976E-03
            3307               1     185.001E-03     181.339E-03     47.1039E-03     46.6039E-03
            3308               1     159.297E-03     155.143E-03     39.3010E-03     39.3738E-03
            3309               1     134.642E-03     130.664E-03     35.6569E-03     35.5481E-03
            3310               1     110.594E-03     106.655E-03     31.4373E-03     31.5347E-03
            3311               1     87.9929E-03     84.3432E-03     29.3632E-03     29.3043E-03
            3312               1     66.8627E-03     63.8342E-03     27.1730E-03     27.2479E-03
            3313               1     51.0078E-03     49.0767E-03     26.3751E-03     26.3105E-03
            3314               1     44.3114E-03     44.8667E-03     25.5507E-03     25.6280E-03
            3315               1     52.1751E-03     54.5667E-03     25.7913E-03     25.7041E-03
            3316               1     68.8240E-03     72.2123E-03     26.0632E-03     26.1789E-03
            3317               1     90.0020E-03     93.9201E-03     27.4249E-03     27.3028E-03
            3318               1     113.031E-03     116.758E-03     28.8716E-03     29.0917E-03
            3319               1     136.733E-03     140.961E-03     31.8457E-03     31.6677E-03
            3320               1     161.635E-03     164.981E-03     34.7783E-03     35.2343E-03
            3321               1     186.118E-03     190.283E-03     40.7382E-03     40.1778E-03
            3322               1     213.429E-03     216.331E-03     44.6068E-03     45.5942E-03
            3323               1     289.545E-03     279.770E-03     16.1912E-03     15.4822E-03
            3324               1     283.528E-03     277.436E-03     60.0814E-03     58.2989E-03
            3325               1     222.468E-03     219.244E-03     55.2530E-03     53.8840E-03
            3326               1     200.187E-03     196.437E-03     49.9675E-03     49.6828E-03
            3327               1     169.055E-03     165.820E-03     45.2458E-03     44.9097E-03
            3328               1     144.546E-03     141.565E-03     40.9790E-03     41.1551E-03
            3329               1     120.038E-03     116.980E-03     38.7362E-03     38.5686E-03
            3330               1     97.5704E-03     95.0845E-03     36.2733E-03     36.4802E-03
            3331               1     78.3321E-03     75.9281E-03     35.3737E-03     35.2036E-03
            3332               1     63.6730E-03     62.7795E-03     34.1603E-03     34.3656E-03
            3333               1     59.1642E-03     59.0400E-03     34.1303E-03     33.9092E-03
            3334               1     64.7078E-03     66.7119E-03     33.7483E-03     34.0202E-03
            3335               1     80.0903E-03     82.1873E-03     34.5285E-03     34.2160E-03
            3336               1     99.3820E-03     102.589E-03     34.8585E-03     35.2902E-03
            3337               1     122.027E-03     124.910E-03     36.6760E-03     36.2640E-03
            3338               1     145.852E-03     149.342E-03     37.9626E-03     38.6615E-03
            3339               1     170.433E-03     173.889E-03     41.2993E-03     40.7919E-03
            3340               1     198.253E-03     201.309E-03     44.3912E-03     45.2290E-03
            3341               1     222.208E-03     226.830E-03     50.1288E-03     48.7323E-03
            3342               1     251.508E-03     247.753E-03     17.7418E-03     17.4145E-03
            3343               1     250.512E-03     245.967E-03     31.4851E-03     31.7296E-03
            3344               1     240.873E-03     235.333E-03     52.9656E-03     51.9111E-03
            3345               1     200.725E-03     197.912E-03     46.9351E-03     46.6765E-03
            3346               1     177.519E-03     175.057E-03     46.8209E-03     46.9468E-03
            3347               1     149.928E-03     147.503E-03     44.7330E-03     44.4898E-03
            3348               1     127.208E-03     125.321E-03     43.2673E-03     43.5102E-03
            3349               1     105.746E-03     103.597E-03     42.6687E-03     42.4453E-03
            3350               1     87.8846E-03     86.7436E-03     41.7383E-03     41.9850E-03
            3351               1     76.0157E-03     74.8090E-03     41.7237E-03     41.4703E-03
            3352               1     71.4394E-03     72.0913E-03     41.2148E-03     41.5110E-03
            3353               1     77.4254E-03     77.9252E-03     41.5855E-03     41.2395E-03
            3354               1     89.8560E-03     92.0965E-03     41.3064E-03     41.7357E-03
            3355               1     108.516E-03     110.061E-03     42.1265E-03     41.6377E-03
            3356               1     129.247E-03     132.079E-03     42.1200E-03     42.7424E-03
            3357               1     152.423E-03     154.690E-03     43.4589E-03     42.8592E-03
            3358               1     177.547E-03     180.417E-03     44.2785E-03     44.9702E-03
            3359               1     201.799E-03     205.405E-03     45.3984E-03     45.1019E-03
            3360               1     234.715E-03     234.820E-03     49.2792E-03     48.3697E-03
            3361               1     230.817E-03     227.475E-03     13.9845E-03     12.8846E-03
            3362               1     238.638E-03     232.670E-03     33.9759E-03     33.0597E-03
            3363               1     224.269E-03     221.377E-03     32.6876E-03     33.9144E-03
            3364               1     202.199E-03     200.095E-03     44.7154E-03     44.9334E-03
            3365               1     174.637E-03     172.940E-03     44.6795E-03     44.5936E-03
            3366               1     153.307E-03     151.974E-03     46.8566E-03     47.0893E-03
            3367               1     130.781E-03     129.159E-03     47.3406E-03     47.1046E-03
            3368               1     112.444E-03     111.514E-03     47.7939E-03     48.0158E-03
            3369               1     97.0371E-03     95.7616E-03     48.2822E-03     48.0391E-03
            3370               1     86.9262E-03     86.8764E-03     48.3191E-03     48.5728E-03
            3371               1     84.3538E-03     83.9301E-03     48.6650E-03     48.3714E-03
            3372               1     88.5976E-03     89.7900E-03     48.3811E-03     48.7283E-03
            3373               1     100.478E-03     100.896E-03     48.6158E-03     48.1903E-03
            3374               1     116.008E-03     117.925E-03     47.9726E-03     48.4550E-03
            3375               1     135.564E-03     136.539E-03     48.0403E-03     47.4476E-03
            3376               1     156.707E-03     158.786E-03     47.1349E-03     47.6452E-03
            3377               1     179.120E-03     180.995E-03     46.3210E-03     45.7986E-03
            3378               1     203.941E-03     205.655E-03     45.6326E-03     45.5828E-03
            3379               1     227.737E-03     230.658E-03     39.5976E-03     41.5728E-03
            3380               1     221.692E-03     210.396E-03     17.4155E-03     17.9755E-03
            3381               1     226.676E-03     224.922E-03     13.6334E-03     16.1430E-03
            3382               1     202.010E-03     202.056E-03     29.0192E-03     30.1025E-03
            3383               1     188.455E-03     187.753E-03     36.4414E-03     36.8412E-03
            3384               1     170.543E-03     169.922E-03     45.1177E-03     45.4016E-03
            3385               1     150.497E-03     149.561E-03     48.3524E-03     48.1969E-03
            3386               1     134.184E-03     133.649E-03     51.7507E-03     51.9113E-03
            3387               1     118.084E-03     117.193E-03     53.4172E-03     53.2165E-03
            3388               1     106.434E-03     106.250E-03     54.8167E-03     54.9847E-03
            3389               1     98.7936E-03     98.2340E-03     55.5885E-03     55.3869E-03
            3390               1     96.9055E-03     97.3340E-03     55.9119E-03     56.1329E-03
            3391               1     101.337E-03     101.166E-03     56.0378E-03     55.7678E-03
            3392               1     110.570E-03     111.569E-03     55.4937E-03     55.8051E-03
            3393               1     124.543E-03     124.591E-03     54.9513E-03     54.5350E-03
            3394               1     140.733E-03     141.953E-03     53.4415E-03     53.8009E-03
            3395               1     159.276E-03     159.580E-03     51.7257E-03     51.1924E-03
            3396               1     178.687E-03     179.695E-03     48.9271E-03     49.0556E-03
            3397               1     198.862E-03     199.728E-03     44.1662E-03     44.1030E-03
            3398               1     215.679E-03     218.241E-03     38.3333E-03     38.2615E-03
            3399               1     208.216E-03     218.372E-03    -9.94858E-03    -5.69403E-03
            3400               1     183.601E-03     187.754E-03     5.39652E-03     7.17964E-03
            3401               1     182.673E-03     183.671E-03     24.6757E-03     24.9601E-03
            3402               1     172.620E-03     173.251E-03     37.6085E-03     37.9302E-03
            3403               1     161.354E-03     161.130E-03     45.8895E-03     45.8916E-03
            3404               1     150.175E-03     150.158E-03     53.5329E-03     53.6026E-03
            3405               1     136.612E-03     136.303E-03     57.1152E-03     57.0392E-03
            3406               1     126.364E-03     126.357E-03     60.6786E-03     60.7263E-03
            3407               1     116.964E-03     116.784E-03     62.2388E-03     62.1717E-03
            3408               1     112.218E-03     112.289E-03     63.6755E-03     63.7354E-03
            3409               1     111.056E-03     110.931E-03     64.0685E-03     63.9958E-03
            3410               1     114.926E-03     115.136E-03     64.1896E-03     64.2729E-03
            3411               1     122.712E-03     122.519E-03     63.5712E-03     63.4633E-03
            3412               1     133.853E-03     134.219E-03     62.4873E-03     62.5921E-03
            3413               1     147.385E-03     146.958E-03     60.5087E-03     60.3360E-03
            3414               1     162.080E-03     162.413E-03     57.7254E-03     57.7936E-03
            3415               1     177.638E-03     176.844E-03     53.3371E-03     53.1601E-03
            3416               1     191.607E-03     191.770E-03     47.1671E-03     47.1853E-03
            3417               1     206.985E-03     205.307E-03     39.4007E-03     39.0336E-03
            3418               1     222.512E-03     220.564E-03     26.5148E-03     26.4711E-03
            3419               1     201.162E-03     199.221E-03     26.5148E-03     26.4711E-03
            3420               1     179.937E-03     178.008E-03     26.5148E-03     26.4711E-03
            3421               1     158.887E-03     156.975E-03     26.5148E-03     26.4711E-03
            3422               1     138.093E-03     136.206E-03     26.5148E-03     26.4711E-03
            3423               1     117.691E-03     115.845E-03     26.5148E-03     26.4711E-03
            3424               1     97.9256E-03     96.1490E-03     26.5148E-03     26.4711E-03
            3425               1     79.2743E-03     77.6277E-03     26.5148E-03     26.4711E-03
            3426               1     62.7391E-03     61.3536E-03     26.5148E-03     26.4711E-03
            3427               1     50.4456E-03     49.5908E-03     26.5148E-03     26.4711E-03
            3428               1     45.9358E-03     45.9458E-03     26.5148E-03     26.4711E-03
            3429               1     51.3051E-03     52.1494E-03     26.5148E-03     26.4711E-03
            3430               1     64.1180E-03     65.4590E-03     26.5148E-03     26.4711E-03
            3431               1     80.9123E-03     82.5044E-03     26.5148E-03     26.4711E-03
            3432               1     99.6958E-03     101.419E-03     26.5148E-03     26.4711E-03
            3433               1     119.534E-03     121.332E-03     26.5148E-03     26.4711E-03
            3434               1     139.980E-03     141.824E-03     26.5148E-03     26.4711E-03
            3435               1     160.802E-03     162.675E-03     26.5148E-03     26.4711E-03
            3436               1     181.870E-03     183.764E-03     26.5148E-03     26.4711E-03
            3437               1     58.1995E-03     61.3231E-03     32.7932E-03     33.8824E-03
            3438               1     53.3095E-03     54.3062E-03     30.7776E-03     31.2795E-03
            3439               1     64.4210E-03     63.1654E-03     36.7696E-03     36.1764E-03
            3440               1     52.7296E-03     53.8035E-03     30.4246E-03     31.0204E-03
            3441               1     63.9255E-03     62.7629E-03     36.8991E-03     36.2029E-03
            3442               1     56.5585E-03     55.7970E-03     32.6407E-03     32.1962E-03
            3443               1     64.0362E-03     63.2544E-03     36.9387E-03     36.4496E-03
            3444               1     56.7533E-03     55.8712E-03     32.6362E-03     32.1360E-03
            3445               1     63.6998E-03     62.8352E-03     36.4021E-03     35.9429E-03
            3446               1     56.1780E-03     55.5911E-03     32.1221E-03     31.6965E-03
            3447               1     62.1848E-03     61.7379E-03     35.1689E-03     34.7068E-03
            3448               1     55.3768E-03     54.6366E-03     31.2006E-03     30.7711E-03
            3449               1     62.0576E-03     60.9800E-03     33.8740E-03     33.5233E-03
            3450               1     50.7568E-03     52.2159E-03     28.2045E-03     28.7628E-03
            3451               1     55.4157E-03     59.6468E-03     29.2263E-03     30.4580E-03
            3452               1     49.5411E-03     51.3352E-03     27.7391E-03     28.2168E-03
            3453               1     66.3030E-03     68.4527E-03     38.1162E-03     39.0717E-03
            3454               1     63.0208E-03     63.4194E-03     35.8014E-03     36.3805E-03
            3455               1     72.5217E-03     71.0547E-03     41.8047E-03     40.8978E-03
            3456               1     60.8640E-03     61.9260E-03     34.7095E-03     35.4228E-03
            3457               1     71.2727E-03     69.6610E-03     40.9025E-03     39.9349E-03
            3458               1     64.5066E-03     64.0215E-03     36.6204E-03     36.1660E-03
            3459               1     70.5125E-03     70.0060E-03     40.1627E-03     39.6977E-03
            3460               1     64.2215E-03     63.4943E-03     35.8742E-03     35.3475E-03
            3461               1     69.3617E-03     68.6231E-03     38.7885E-03     38.3103E-03
            3462               1     63.6668E-03     63.4178E-03     35.0529E-03     34.6353E-03
            3463               1     67.8231E-03     67.8810E-03     37.3286E-03     37.1138E-03
            3464               1     62.8726E-03     62.4160E-03     33.7156E-03     33.2777E-03
            3465               1     67.4201E-03     67.2335E-03     35.8576E-03     35.7328E-03
            3466               1     60.6047E-03     61.1392E-03     31.6608E-03     31.5587E-03
            3467               1     64.5491E-03     65.5525E-03     33.2008E-03     33.1500E-03
            3468               1     59.3647E-03     59.3558E-03     29.7358E-03     29.5143E-03
            3469               1     64.1774E-03     63.4123E-03     30.6241E-03     30.6014E-03
            3470               1     54.0013E-03     56.2571E-03     25.6030E-03     26.2897E-03
            3471               1     57.1485E-03     62.6902E-03     24.9835E-03     26.4183E-03
            3472               1     50.7692E-03     53.5649E-03     24.2820E-03     24.8477E-03
            3473               1     77.2983E-03     78.1724E-03     44.2652E-03     45.0447E-03
            3474               1     75.9536E-03     75.4840E-03     41.1977E-03     41.7759E-03
            3475               1     82.7660E-03     81.0713E-03     47.1911E-03     45.8216E-03
            3476               1     72.4497E-03     73.5803E-03     39.4588E-03     40.2449E-03
            3477               1     80.9510E-03     79.1264E-03     45.1759E-03     43.9035E-03
            3478               1     75.3045E-03     75.0865E-03     40.6106E-03     39.9538E-03
            3479               1     78.9876E-03     78.4402E-03     43.2306E-03     42.5060E-03
            3480               1     74.5357E-03     74.2833E-03     39.0193E-03     38.4223E-03
            3481               1     77.0061E-03     76.6553E-03     40.9751E-03     40.4620E-03
            3482               1     73.9061E-03     73.8913E-03     37.5233E-03     36.9206E-03
            3483               1     75.6376E-03     75.8398E-03     38.9439E-03     38.7224E-03
            3484               1     71.9819E-03     72.5207E-03     35.0956E-03     34.7981E-03
            3485               1     73.6095E-03     74.4078E-03     36.3943E-03     36.3337E-03
            3486               1     71.0395E-03     71.5559E-03     33.0474E-03     32.7617E-03
            3487               1     72.9379E-03     73.5668E-03     33.9382E-03     34.1099E-03
            3488               1     67.9930E-03     69.7582E-03     29.6530E-03     29.8375E-03
            3489               1     69.4704E-03     71.9970E-03     29.9469E-03     30.2692E-03
            3490               1     66.5758E-03     67.5883E-03     26.8908E-03     26.8460E-03
            3491               1     68.9099E-03     68.6351E-03     25.9836E-03     26.3369E-03
            3492               1     61.3246E-03     64.2375E-03     21.6541E-03     22.3946E-03
            3493               1     62.2296E-03     68.4864E-03     19.4092E-03     21.0463E-03
            3494               1     56.8416E-03     60.0676E-03     19.5445E-03     20.1492E-03
            3495               1     89.7705E-03     89.3791E-03     50.0826E-03     50.6613E-03
            3496               1     90.8478E-03     89.5633E-03     46.2654E-03     46.8375E-03
            3497               1     94.4857E-03     92.8489E-03     52.1546E-03     50.3819E-03
            3498               1     85.9430E-03     87.1997E-03     43.6259E-03     44.4227E-03
            3499               1     91.9214E-03     90.1070E-03     48.7401E-03     47.0945E-03
            3500               1     87.8660E-03     88.3076E-03     43.8216E-03     43.0216E-03
            3501               1     88.7483E-03     88.4951E-03     45.4054E-03     44.4710E-03
            3502               1     86.6976E-03     87.0314E-03     41.2114E-03     40.4315E-03
            3503               1     86.0181E-03     86.1101E-03     42.0472E-03     41.4282E-03
            3504               1     85.4431E-03     86.2016E-03     38.5709E-03     37.8940E-03
            3505               1     84.1074E-03     84.8511E-03     38.9439E-03     38.7224E-03
            3506               1     83.0570E-03     84.4887E-03     35.0956E-03     34.7981E-03
            3507               1     81.5356E-03     83.1655E-03     35.3222E-03     35.3675E-03
            3508               1     81.7957E-03     83.2588E-03     31.9999E-03     31.7884E-03
            3509               1     80.7895E-03     82.1208E-03     31.7634E-03     32.1449E-03
            3510               1     78.4058E-03     81.3484E-03     27.4609E-03     27.8283E-03
            3511               1     76.9042E-03     80.8550E-03     26.3826E-03     27.0781E-03
            3512               1     76.8264E-03     78.9156E-03     23.6798E-03     23.7782E-03
            3513               1     76.4341E-03     76.7311E-03     21.0201E-03     21.7766E-03
            3514               1     72.1202E-03     75.5875E-03     17.4870E-03     18.2168E-03
            3515               1     70.5131E-03     76.8320E-03     13.5919E-03     15.4296E-03
            3516               1     67.2856E-03     70.3826E-03     14.4768E-03     15.0876E-03
            3517               1     96.0687E-03     94.4466E-03     50.6275E-03     51.0046E-03
            3518               1     100.594E-03     98.7148E-03     45.9703E-03     46.5933E-03
            3519               1     99.7246E-03     99.1410E-03     51.2475E-03     49.4416E-03
            3520               1     93.9472E-03     95.5002E-03     41.5251E-03     42.3084E-03
            3521               1     96.7658E-03     95.7427E-03     45.5505E-03     43.6833E-03
            3522               1     93.8556E-03     96.2533E-03     39.8409E-03     39.3216E-03
            3523               1     91.6162E-03     93.3314E-03     39.6214E-03     38.9833E-03
            3524               1     92.2522E-03     93.9476E-03     35.2066E-03     34.3337E-03
            3525               1     88.9988E-03     90.1627E-03     33.7194E-03     33.4092E-03
            3526               1     88.2939E-03     92.1018E-03     29.5518E-03     29.4988E-03
            3527               1     83.3595E-03     88.1075E-03     26.5175E-03     27.2264E-03
            3528               1     85.7546E-03     88.6290E-03     24.0005E-03     23.6457E-03
            3529               1     81.5904E-03     82.7317E-03     19.3961E-03     20.2582E-03
            3530               1     81.1191E-03     85.2573E-03     17.1040E-03     17.4749E-03
            3531               1     75.8298E-03     81.7899E-03     11.3920E-03     13.3358E-03
            3532               1     76.5228E-03     79.3226E-03     12.5463E-03     12.9030E-03
            3533               1     241.219E-03     246.528E-03     58.1179E-03     54.6400E-03
            3534               1     289.883E-03     302.274E-03     57.8161E-03     53.3318E-03
            3535               1     264.160E-03     263.373E-03     56.4497E-03     54.8299E-03
            3536               1     289.631E-03     277.060E-03     46.9734E-03     47.4372E-03
            3537               1     257.215E-03     259.958E-03     42.5404E-03     45.7136E-03
            3538               1     273.236E-03     279.405E-03     39.0324E-03     38.0160E-03
            3539               1     250.254E-03     251.754E-03     39.0324E-03     37.1542E-03
            3540               1     263.397E-03     265.853E-03     29.4981E-03     30.2110E-03
            3541               1     238.226E-03     239.727E-03     27.9088E-03     30.0574E-03
            3542               1     253.470E-03     246.038E-03     23.9604E-03     24.3054E-03
            3543               1     214.788E-03     216.461E-03     25.8035E-03     27.0768E-03
            3544               1     233.699E-03     241.749E-03     14.6908E-03     19.3124E-03
            3545               1     203.329E-03     205.237E-03     26.5148E-03     26.4711E-03
            3546               1     225.133E-03     227.052E-03     26.5148E-03     26.4711E-03
            3547               1     137.319E-03     168.499E-03     19.2736E-03     17.2853E-03
            3548               1     182.288E-03     141.489E-03     21.5050E-03     21.1982E-03
            3549               1     142.129E-03     165.131E-03     19.3655E-03     21.0709E-03
            3550               1     145.993E-03     141.259E-03     20.7093E-03     20.0306E-03
            3551               1     141.986E-03     136.488E-03     21.0970E-03     21.4970E-03
            3552               1     126.961E-03     142.402E-03     22.1957E-03     20.6705E-03
            3553               1     142.346E-03     118.168E-03     20.7047E-03     20.5791E-03
            3554               1     110.005E-03     122.365E-03     22.1797E-03     23.2847E-03
            3555               1     120.102E-03     147.181E-03     19.7235E-03     17.9996E-03
            3556               1     158.239E-03     124.474E-03     21.8413E-03     21.8433E-03
            3557               1     123.937E-03     143.442E-03     19.3824E-03     21.6061E-03
            3558               1     124.576E-03     123.288E-03     20.3981E-03     21.0241E-03
            3559               1     121.379E-03     119.450E-03     20.4334E-03     21.3388E-03
            3560               1     111.281E-03     115.766E-03     20.6714E-03     20.7548E-03
            3561               1     109.661E-03     107.581E-03     21.2240E-03     20.2594E-03
            3562               1     103.429E-03     101.781E-03     21.1911E-03     20.3367E-03
            3563               1     95.0310E-03     102.704E-03     22.0862E-03     20.1523E-03
            3564               1     101.563E-03     87.0242E-03     20.5219E-03     19.8033E-03
            3565               1     80.9684E-03     87.3876E-03     21.7122E-03     22.1866E-03
            3566               1     92.1449E-03     113.122E-03     20.0406E-03     18.6671E-03
            3567               1     119.989E-03     94.5851E-03     21.6309E-03     21.5181E-03
            3568               1     92.9841E-03     107.572E-03     19.8135E-03     21.3743E-03
            3569               1     92.1375E-03     91.2831E-03     20.5245E-03     20.9145E-03
            3570               1     88.5958E-03     87.3360E-03     20.5594E-03     21.1667E-03
            3571               1     80.2046E-03     83.1314E-03     20.6714E-03     20.7548E-03
            3572               1     77.4932E-03     76.1061E-03     21.0980E-03     20.4315E-03
            3573               1     72.1461E-03     70.9604E-03     21.0647E-03     20.4463E-03
            3574               1     65.8379E-03     68.8579E-03     21.6551E-03     20.3840E-03
            3575               1     66.0889E-03     59.5917E-03     20.7322E-03     20.1285E-03
            3576               1     55.9551E-03     56.9470E-03     21.3951E-03     21.5191E-03
            3577               1     65.1493E-03     79.6035E-03     20.3630E-03     19.3808E-03
            3578               1     82.0690E-03     65.5150E-03     21.3128E-03     21.1548E-03
            3579               1     63.1322E-03     72.1776E-03     20.2941E-03     21.1289E-03
            3580               1     60.8735E-03     60.2906E-03     20.6303E-03     20.7234E-03
            3581               1     57.4806E-03     56.5513E-03     20.7967E-03     20.9703E-03
            3582               1     51.5105E-03     52.5648E-03     20.8819E-03     20.6531E-03
            3583               1     48.7561E-03     47.5912E-03     21.0534E-03     20.7560E-03
            3584               1     44.6430E-03     44.3692E-03     21.2728E-03     20.6581E-03
            3585               1     41.7076E-03     41.1780E-03     21.0342E-03     20.6691E-03
            3586               1     39.7458E-03     38.0795E-03     21.1213E-03     20.9395E-03
            3587               1     44.0364E-03     51.4275E-03     20.5946E-03     20.0123E-03
            3588               1     50.4641E-03     43.1051E-03     21.1412E-03     20.9168E-03
            3589               1     41.1589E-03     44.0894E-03     20.6520E-03     20.8889E-03
            3590               1     39.1022E-03     38.8725E-03     20.8855E-03     20.6972E-03
            3591               1     37.7371E-03     37.2908E-03     20.9208E-03     20.8305E-03
            3592               1     36.3733E-03     36.1722E-03     20.9093E-03     20.8525E-03
            3593               1     36.9846E-03     36.1599E-03     21.0685E-03     20.8605E-03
            3594               1     36.4016E-03     37.7477E-03     20.8587E-03     20.5577E-03
            3595               1     104.703E-03     124.892E-03     26.7632E-03     23.7677E-03
            3596               1     135.802E-03     108.174E-03     28.8529E-03     28.2142E-03
            3597               1     105.330E-03     121.603E-03     26.4355E-03     28.1316E-03
            3598               1     108.513E-03     104.698E-03     26.9471E-03     26.5597E-03
            3599               1     104.506E-03     100.895E-03     26.5389E-03     26.7014E-03
            3600               1     95.1398E-03     104.175E-03     26.6601E-03     25.6756E-03
            3601               1     105.370E-03     89.5219E-03     25.8054E-03     25.2207E-03
            3602               1     84.9044E-03     94.3653E-03     26.2498E-03     28.2286E-03
            3603               1     92.9870E-03     109.401E-03     26.5739E-03     23.6392E-03
            3604               1     119.246E-03     96.5768E-03     28.4801E-03     27.2793E-03
            3605               1     93.9912E-03     107.423E-03     26.5072E-03     27.4878E-03
            3606               1     95.8157E-03     93.9459E-03     27.1324E-03     26.1121E-03
            3607               1     92.0884E-03     91.7125E-03     26.7973E-03     26.6908E-03
            3608               1     85.5548E-03     88.8267E-03     26.1155E-03     26.4151E-03
            3609               1     83.1361E-03     83.5971E-03     25.6928E-03     26.1408E-03
            3610               1     79.5476E-03     79.3035E-03     25.4689E-03     26.0403E-03
            3611               1     74.1733E-03     79.3985E-03     25.7269E-03     25.1305E-03
            3612               1     79.1088E-03     70.6295E-03     25.3019E-03     25.1240E-03
            3613               1     66.3376E-03     71.8969E-03     25.3008E-03     26.7353E-03
            3614               1     75.3887E-03     87.1945E-03     26.3710E-03     24.1328E-03
            3615               1     94.1776E-03     77.5402E-03     27.9734E-03     26.9357E-03
            3616               1     75.0152E-03     84.5907E-03     26.3828E-03     27.1120E-03
            3617               1     75.6430E-03     74.1851E-03     26.8672E-03     26.1007E-03
            3618               1     72.2798E-03     72.0410E-03     26.6212E-03     26.6031E-03
            3619               1     67.0290E-03     69.1586E-03     26.1155E-03     26.4151E-03
            3620               1     64.4660E-03     64.9677E-03     25.8689E-03     26.2285E-03
            3621               1     61.4707E-03     61.4449E-03     25.7341E-03     26.0518E-03
            3622               1     57.9413E-03     59.9105E-03     25.8513E-03     25.5063E-03
            3623               1     58.7058E-03     55.2922E-03     25.8085E-03     25.4676E-03
            3624               1     52.8329E-03     54.5101E-03     25.5038E-03     26.2417E-03
            3625               1     59.8547E-03     67.0576E-03     26.3272E-03     24.8683E-03
            3626               1     71.0451E-03     60.6244E-03     27.6987E-03     26.8289E-03
            3627               1     58.2149E-03     63.9486E-03     26.3421E-03     26.9605E-03
            3628               1     58.0504E-03     56.9215E-03     26.7888E-03     26.3450E-03
            3629               1     55.0993E-03     55.2339E-03     26.4918E-03     26.6547E-03
            3630               1     51.8932E-03     52.9099E-03     26.1768E-03     26.5636E-03
            3631               1     50.2605E-03     49.9618E-03     26.2542E-03     26.1935E-03
            3632               1     48.5305E-03     48.6059E-03     26.2104E-03     26.1961E-03
            3633               1     47.7857E-03     46.9261E-03     26.5046E-03     25.9136E-03
            3634               1     46.2507E-03     45.9640E-03     26.0069E-03     26.1535E-03
            3635               1     49.5799E-03     52.5540E-03     26.5298E-03     25.7954E-03
            3636               1     53.9824E-03     49.5684E-03     27.4677E-03     26.8535E-03
            3637               1     48.0314E-03     50.1188E-03     26.5376E-03     27.0152E-03
            3638               1     47.5919E-03     47.3094E-03     26.7615E-03     26.6241E-03
            3639               1     46.7695E-03     46.5522E-03     26.7244E-03     26.6370E-03
            3640               1     46.0576E-03     46.4132E-03     26.5580E-03     26.7920E-03
            3641               1     47.4013E-03     46.0630E-03     27.1906E-03     26.5814E-03
            3642               1     46.0098E-03     46.4053E-03     26.4832E-03     26.2009E-03
            3643               1     75.9810E-03     79.5491E-03     31.8530E-03     27.3091E-03
            3644               1     92.0915E-03     76.8807E-03     35.3380E-03     31.8314E-03
            3645               1     76.4997E-03     83.3988E-03     31.5571E-03     31.2561E-03
            3646               1     77.6522E-03     76.0289E-03     31.5414E-03     30.0558E-03
            3647               1     74.6723E-03     75.7269E-03     30.0142E-03     31.5636E-03
            3648               1     68.5106E-03     74.4416E-03     29.5574E-03     30.1443E-03
            3649               1     69.6893E-03     66.6586E-03     26.6410E-03     29.3539E-03
            3650               1     64.3857E-03     70.4732E-03     29.3813E-03     32.2240E-03
            3651               1     67.8519E-03     69.0384E-03     30.1971E-03     26.0587E-03
            3652               1     81.4153E-03     68.4534E-03     33.7045E-03     30.0527E-03
            3653               1     69.7479E-03     73.4236E-03     30.4189E-03     29.3041E-03
            3654               1     71.6612E-03     68.4013E-03     31.2918E-03     28.6018E-03
            3655               1     70.4961E-03     69.4221E-03     30.5738E-03     29.5540E-03
            3656               1     67.3918E-03     68.9340E-03     30.0976E-03     29.8121E-03
            3657               1     65.5517E-03     67.2416E-03     29.4108E-03     30.0989E-03
            3658               1     62.3778E-03     65.8459E-03     28.4868E-03     30.8848E-03
            3659               1     58.9803E-03     63.6961E-03     28.4274E-03     30.1258E-03
            3660               1     57.2942E-03     58.7310E-03     26.2846E-03     29.1229E-03
            3661               1     56.5221E-03     60.7915E-03     28.8047E-03     31.3158E-03
            3662               1     61.0412E-03     61.1031E-03     29.9751E-03     26.8968E-03
            3663               1     70.3581E-03     61.1881E-03     32.5216E-03     29.9044E-03
            3664               1     61.8487E-03     64.0569E-03     30.1014E-03     29.4351E-03
            3665               1     62.9705E-03     60.3511E-03     30.8446E-03     28.9658E-03
            3666               1     61.8845E-03     60.8426E-03     30.3884E-03     29.6409E-03
            3667               1     59.6986E-03     60.2823E-03     30.0976E-03     29.8121E-03
            3668               1     58.0646E-03     59.1510E-03     29.5962E-03     30.0120E-03
            3669               1     55.8363E-03     58.3831E-03     28.9339E-03     30.5209E-03
            3670               1     53.6760E-03     56.5219E-03     28.7449E-03     29.9948E-03
            3671               1     51.6839E-03     53.8674E-03     27.4674E-03     29.2711E-03
            3672               1     52.5945E-03     54.8114E-03     29.0267E-03     30.4777E-03
            3673               1     56.4261E-03     55.7802E-03     30.2266E-03     28.1470E-03
            3674               1     61.5174E-03     56.2675E-03     31.7154E-03     30.1877E-03
            3675               1     56.3605E-03     57.3666E-03     30.2852E-03     29.9762E-03
            3676               1     56.4925E-03     55.2750E-03     30.6196E-03     29.7974E-03
            3677               1     55.9209E-03     55.2357E-03     30.5462E-03     30.2007E-03
            3678               1     54.1716E-03     54.7158E-03     30.1578E-03     30.1886E-03
            3679               1     53.0145E-03     54.1486E-03     29.6965E-03     30.4420E-03
            3680               1     51.8863E-03     52.9492E-03     29.4937E-03     30.0445E-03
            3681               1     50.6033E-03     52.1134E-03     28.9111E-03     29.7716E-03
            3682               1     51.4818E-03     51.8723E-03     29.5460E-03     29.8770E-03
            3683               1     54.2682E-03     53.4229E-03     30.7295E-03     29.5432E-03
            3684               1     56.0829E-03     54.0483E-03     31.3849E-03     30.7052E-03
            3685               1     53.7702E-03     54.2868E-03     30.6481E-03     30.7508E-03
            3686               1     53.7361E-03     53.6316E-03     30.8472E-03     30.7412E-03
            3687               1     53.3507E-03     53.5927E-03     30.7084E-03     30.8782E-03
            3688               1     52.7818E-03     53.0898E-03     30.4663E-03     30.6497E-03
            3689               1     53.0643E-03     52.7999E-03     30.5942E-03     30.4800E-03
            3690               1     52.8874E-03     52.2515E-03     30.5048E-03     29.9900E-03
            3691               1     55.5813E-03     43.5397E-03     31.5797E-03     25.0097E-03
            3692               1     61.1571E-03     52.6801E-03     34.5701E-03     29.3439E-03
            3693               1     56.1962E-03     55.8739E-03     31.0393E-03     30.7921E-03
            3694               1     59.7293E-03     55.7857E-03     32.6654E-03     30.3251E-03
            3695               1     59.5785E-03     61.2279E-03     32.7449E-03     33.5029E-03
            3696               1     59.7989E-03     61.6789E-03     33.1497E-03     34.3897E-03
            3697               1     54.2611E-03     62.0614E-03     30.8268E-03     35.0809E-03
            3698               1     54.9281E-03     64.8430E-03     31.2502E-03     37.3841E-03
            3699               1     51.0046E-03     41.7091E-03     29.3076E-03     24.0683E-03
            3700               1     55.5176E-03     48.8321E-03     31.8245E-03     27.8232E-03
            3701               1     51.3176E-03     51.0401E-03     28.9316E-03     28.8882E-03
            3702               1     54.7149E-03     50.5655E-03     30.3615E-03     28.1939E-03
            3703               1     55.9313E-03     53.8801E-03     30.9342E-03     29.8227E-03
            3704               1     56.7405E-03     55.2450E-03     31.0894E-03     30.5609E-03
            3705               1     58.1409E-03     56.5542E-03     32.1137E-03     31.2849E-03
            3706               1     57.6294E-03     59.4289E-03     32.0814E-03     33.1901E-03
            3707               1     58.1857E-03     60.0080E-03     32.8265E-03     34.0693E-03
            3708               1     53.5840E-03     60.9510E-03     30.8276E-03     34.9189E-03
            3709               1     53.9827E-03     62.3501E-03     31.0220E-03     35.9162E-03
            3710               1     51.3472E-03     44.9614E-03     29.5809E-03     25.9571E-03
            3711               1     55.0632E-03     50.4435E-03     31.6656E-03     28.9544E-03
            3712               1     51.7143E-03     51.9078E-03     29.5526E-03     29.7141E-03
            3713               1     54.0475E-03     50.9513E-03     30.6357E-03     28.9904E-03
            3714               1     54.9752E-03     53.0678E-03     31.1222E-03     30.0558E-03
            3715               1     55.2091E-03     54.0180E-03     31.0894E-03     30.5609E-03
            3716               1     56.5151E-03     54.9304E-03     31.9256E-03     31.0518E-03
            3717               1     56.0729E-03     57.0975E-03     31.8072E-03     32.3936E-03
            3718               1     56.4505E-03     58.0755E-03     32.2056E-03     33.2433E-03
            3719               1     53.7425E-03     58.7435E-03     30.9866E-03     33.7877E-03
            3720               1     53.3808E-03     59.0303E-03     30.7487E-03     34.0274E-03
            3721               1     52.6571E-03     48.9982E-03     30.3728E-03     28.2850E-03
            3722               1     55.7042E-03     52.8475E-03     32.0900E-03     30.4407E-03
            3723               1     53.2723E-03     53.9083E-03     30.6556E-03     31.0354E-03
            3724               1     54.9622E-03     52.5001E-03     31.5531E-03     30.1780E-03
            3725               1     55.2786E-03     54.0074E-03     31.7308E-03     31.0013E-03
            3726               1     55.4629E-03     54.3451E-03     31.8018E-03     31.1848E-03
            3727               1     55.7534E-03     55.2790E-03     32.0221E-03     31.7052E-03
            3728               1     55.3946E-03     56.9852E-03     31.8447E-03     32.7989E-03
            3729               1     54.4597E-03     56.7625E-03     31.4296E-03     32.7273E-03
            3730               1     53.4383E-03     56.4555E-03     30.8240E-03     32.5726E-03
            3731               1     54.4546E-03     53.0850E-03     31.4299E-03     30.6344E-03
            3732               1     56.9874E-03     55.3745E-03     32.8686E-03     31.9516E-03
            3733               1     55.4463E-03     56.1967E-03     31.9986E-03     32.4274E-03
            3734               1     56.6824E-03     55.0473E-03     32.7016E-03     31.7696E-03
            3735               1     56.6680E-03     55.5707E-03     32.7088E-03     32.0585E-03
            3736               1     55.7879E-03     56.7459E-03     32.1904E-03     32.7545E-03
            3737               1     56.3490E-03     56.2511E-03     32.5283E-03     32.4732E-03
            3738               1     54.3943E-03     55.0266E-03     31.4000E-03     31.7593E-03
            3739               1     43.4031E-03     55.1013E-03     19.6712E-03     18.7325E-03
            3740               1     56.0465E-03     51.8446E-03     23.9918E-03     24.7801E-03
            3741               1     48.5160E-03     55.4613E-03     25.4348E-03     26.6801E-03
            3742               1     56.3363E-03     55.7517E-03     29.6256E-03     29.3064E-03
            3743               1     59.7001E-03     59.3500E-03     31.9961E-03     31.5872E-03
            3744               1     65.5215E-03     64.1096E-03     36.2111E-03     34.8748E-03
            3745               1     72.8642E-03     71.0250E-03     40.0296E-03     39.3693E-03
            3746               1     78.8157E-03     81.1423E-03     44.4739E-03     43.7108E-03
            3747               1     43.2328E-03     53.6403E-03     19.5665E-03     18.7997E-03
            3748               1     54.4500E-03     50.3716E-03     22.8789E-03     23.9398E-03
            3749               1     45.1077E-03     53.1667E-03     23.4161E-03     24.9613E-03
            3750               1     50.1786E-03     50.6836E-03     26.1816E-03     26.4264E-03
            3751               1     50.5757E-03     53.2337E-03     27.1846E-03     27.9425E-03
            3752               1     53.6640E-03     53.3060E-03     29.2957E-03     28.7639E-03
            3753               1     56.5646E-03     56.4389E-03     31.0794E-03     30.7817E-03
            3754               1     60.7679E-03     57.7750E-03     33.5380E-03     31.9090E-03
            3755               1     64.9902E-03     63.1140E-03     36.3740E-03     35.1979E-03
            3756               1     71.0622E-03     68.6716E-03     39.8878E-03     38.6794E-03
            3757               1     76.2205E-03     76.8479E-03     43.4177E-03     42.3462E-03
            3758               1     45.4626E-03     50.6283E-03     23.3688E-03     22.5535E-03
            3759               1     53.1109E-03     50.5932E-03     25.5905E-03     26.2896E-03
            3760               1     46.6772E-03     51.8908E-03     25.4818E-03     26.5933E-03
            3761               1     49.9565E-03     49.9345E-03     27.3543E-03     27.3005E-03
            3762               1     49.8778E-03     51.6536E-03     27.8055E-03     28.3951E-03
            3763               1     52.1179E-03     51.4671E-03     29.2957E-03     28.7639E-03
            3764               1     54.0820E-03     53.9216E-03     30.4585E-03     30.3291E-03
            3765               1     57.4100E-03     54.9304E-03     32.3652E-03     31.0350E-03
            3766               1     60.5792E-03     58.9961E-03     34.3083E-03     33.5660E-03
            3767               1     65.1230E-03     63.5890E-03     37.1763E-03     36.3296E-03
            3768               1     68.9271E-03     68.0146E-03     39.6153E-03     38.5924E-03
            3769               1     49.4564E-03     50.6499E-03     27.4038E-03     26.5562E-03
            3770               1     53.5659E-03     52.3221E-03     28.6109E-03     28.9565E-03
            3771               1     49.4738E-03     51.8962E-03     27.9597E-03     28.5443E-03
            3772               1     51.1658E-03     50.7803E-03     29.0331E-03     28.7708E-03
            3773               1     51.0631E-03     51.3389E-03     29.1715E-03     29.2310E-03
            3774               1     52.4845E-03     52.0279E-03     30.0851E-03     29.8168E-03
            3775               1     54.5837E-03     53.2535E-03     31.2261E-03     30.5104E-03
            3776               1     56.6299E-03     55.5814E-03     32.3698E-03     31.9231E-03
            3777               1     60.2611E-03     59.5242E-03     34.5863E-03     34.2336E-03
            3778               1     62.1875E-03     60.5869E-03     35.8732E-03     34.9281E-03
            3779               1     54.1030E-03     53.3004E-03     30.9452E-03     30.0863E-03
            3780               1     55.4255E-03     54.9730E-03     31.2817E-03     31.4116E-03
            3781               1     52.7776E-03     53.2353E-03     30.3331E-03     30.4050E-03
            3782               1     53.2616E-03     52.6320E-03     30.7031E-03     30.3431E-03
            3783               1     53.5937E-03     52.9884E-03     30.9186E-03     30.5505E-03
            3784               1     54.4222E-03     54.1111E-03     31.3128E-03     31.1500E-03
            3785               1     57.1759E-03     56.8883E-03     32.7397E-03     32.7379E-03
            3786               1     57.6246E-03     56.2447E-03     33.2000E-03     32.3570E-03
            3787               1     60.3195E-03     75.1297E-03     5.86114E-03     10.8664E-03
            3788               1     69.6826E-03     62.2761E-03     12.1808E-03     16.6425E-03
            3789               1     63.0601E-03     69.6846E-03     21.0345E-03     21.2649E-03
            3790               1     64.7857E-03     64.6145E-03     23.3103E-03     25.0503E-03
            3791               1     67.1081E-03     66.3263E-03     28.9687E-03     27.7902E-03
            3792               1     68.8181E-03     67.4626E-03     32.6621E-03     31.2763E-03
            3793               1     81.3910E-03     72.7992E-03     42.5385E-03     37.4197E-03
            3794               1     86.1984E-03     80.7513E-03     47.9257E-03     43.6696E-03
            3795               1     57.8293E-03     71.4094E-03     7.62518E-03     11.7477E-03
            3796               1     66.1176E-03     58.8187E-03     12.3973E-03     15.8632E-03
            3797               1     57.8296E-03     64.2888E-03     19.1563E-03     19.3759E-03
            3798               1     58.3491E-03     58.5040E-03     19.9899E-03     22.0789E-03
            3799               1     56.8035E-03     58.0182E-03     22.9882E-03     23.3897E-03
            3800               1     57.1551E-03     57.7286E-03     25.1791E-03     25.7225E-03
            3801               1     57.8761E-03     57.3167E-03     27.5633E-03     27.2943E-03
            3802               1     61.2127E-03     59.7901E-03     31.1410E-03     30.0762E-03
            3803               1     64.0885E-03     61.2347E-03     34.1065E-03     32.1910E-03
            3804               1     76.1804E-03     68.8435E-03     42.4247E-03     37.8300E-03
            3805               1     80.1472E-03     74.5841E-03     45.8034E-03     42.1367E-03
            3806               1     51.3439E-03     62.2524E-03     13.7116E-03     16.5924E-03
            3807               1     57.6414E-03     52.9267E-03     17.1843E-03     19.3651E-03
            3808               1     51.7425E-03     56.2215E-03     21.5397E-03     21.4189E-03
            3809               1     51.3652E-03     51.9869E-03     21.7676E-03     23.3538E-03
            3810               1     50.1922E-03     51.1528E-03     23.7176E-03     24.0122E-03
            3811               1     50.3505E-03     51.0903E-03     25.1791E-03     25.7225E-03
            3812               1     51.0201E-03     50.6112E-03     26.8339E-03     26.6718E-03
            3813               1     53.5874E-03     52.9743E-03     29.3633E-03     28.8013E-03
            3814               1     56.5425E-03     53.8491E-03     31.7231E-03     30.1480E-03
            3815               1     65.5583E-03     60.6051E-03     37.6377E-03     34.3280E-03
            3816               1     68.8020E-03     64.7385E-03     39.7170E-03     37.2920E-03
            3817               1     48.1105E-03     55.4099E-03     19.8205E-03     21.5374E-03
            3818               1     51.7267E-03     49.2222E-03     22.0532E-03     23.0800E-03
            3819               1     47.8664E-03     50.0344E-03     24.1529E-03     23.7610E-03
            3820               1     46.6304E-03     47.4520E-03     23.9522E-03     24.9953E-03
            3821               1     46.2821E-03     46.9470E-03     25.1011E-03     25.2849E-03
            3822               1     46.5936E-03     46.6894E-03     26.0201E-03     26.1806E-03
            3823               1     48.0502E-03     48.1151E-03     27.4270E-03     27.3278E-03
            3824               1     50.7676E-03     48.9670E-03     29.2292E-03     28.1348E-03
            3825               1     56.8126E-03     53.7769E-03     32.7080E-03     30.6998E-03
            3826               1     59.0931E-03     57.4648E-03     33.7509E-03     32.5947E-03
            3827               1     48.4953E-03     52.2157E-03     24.9814E-03     25.7769E-03
            3828               1     49.4509E-03     48.1005E-03     25.9798E-03     26.0867E-03
            3829               1     46.7319E-03     46.9600E-03     26.3198E-03     25.8155E-03
            3830               1     45.4517E-03     45.8679E-03     25.8823E-03     26.2957E-03
            3831               1     45.7570E-03     46.0895E-03     26.3967E-03     26.5448E-03
            3832               1     47.4648E-03     46.6641E-03     27.3768E-03     26.7257E-03
            3833               1     51.0509E-03     49.4255E-03     28.7395E-03     27.9755E-03
            3834               1     51.9278E-03     52.9730E-03     28.8055E-03     28.7590E-03
            3947               1     223.065E-03     223.644E-03    -36.2506E-03    -35.4352E-03
            3948               1     236.503E-03     236.115E-03    -25.6514E-03    -29.2555E-03
            3949               1     214.439E-03     222.067E-03    -29.7203E-03    -30.3934E-03
            3950               1     245.167E-03     248.490E-03    -32.0501E-03    -28.6554E-03
            3951               1     222.645E-03     224.876E-03    -15.7855E-03    -18.1389E-03
            3952               1     245.880E-03     256.227E-03    -7.20616E-03    -12.0247E-03
            3953               1     245.934E-03     248.861E-03    -21.5800E-03    -21.6044E-03
            3954               1     266.610E-03     253.364E-03    -16.7719E-03    -16.7490E-03
            3955               1     256.998E-03     256.078E-03    -31.0206E-03    -32.2219E-03
            3956               1     267.006E-03     281.005E-03    -26.0068E-03    -25.6726E-03
            3957               1     259.767E-03     261.650E-03    -42.7650E-03    -42.5131E-03
            3958               1     287.595E-03     272.084E-03    -37.5788E-03    -38.3218E-03
            3959               1     238.881E-03     243.625E-03    -47.7311E-03    -44.1645E-03
            3960               1     282.581E-03     295.508E-03    -47.4043E-03    -42.6371E-03
            3961               1     46.7578E-03     47.3958E-03    -26.9851E-03    -26.7573E-03
            3962               1     47.1867E-03     48.0797E-03    -27.1751E-03    -27.1443E-03
            3963               1     51.0347E-03     47.4497E-03    -27.4793E-03    -27.1715E-03
            3964               1     48.2826E-03     52.5425E-03    -26.8985E-03    -26.4444E-03
            3965               1     48.6263E-03     47.7293E-03    -27.9007E-03    -27.4803E-03
            3966               1     48.7667E-03     48.4654E-03    -27.9065E-03    -27.3165E-03
            3967               1     51.1253E-03     49.8906E-03    -28.0506E-03    -27.5017E-03
            3968               1     53.7802E-03     53.0014E-03    -27.7822E-03    -27.3724E-03
            3969               1     57.3250E-03     56.7367E-03    -27.8268E-03    -27.4491E-03
            3970               1     60.8513E-03     62.0240E-03    -27.4786E-03    -27.5764E-03
            3971               1     67.5858E-03     66.8730E-03    -27.5379E-03    -27.8142E-03
            3972               1     71.6968E-03     71.4571E-03    -27.4727E-03    -27.5910E-03
            3973               1     74.9676E-03     84.8796E-03    -27.0698E-03    -28.0019E-03
            3974               1     96.6029E-03     77.7759E-03    -28.3723E-03    -28.0091E-03
            3975               1     77.6436E-03     94.4249E-03    -27.1510E-03    -25.9373E-03
            3976               1     66.5157E-03     66.1228E-03    -28.3398E-03    -28.3926E-03
            3977               1     76.4225E-03     70.7913E-03    -27.8424E-03    -27.3292E-03
            3978               1     77.9700E-03     80.5677E-03    -28.6011E-03    -27.3052E-03
            3979               1     85.9535E-03     83.7658E-03    -28.1229E-03    -27.6191E-03
            3980               1     90.4579E-03     92.1392E-03    -27.7747E-03    -27.3447E-03
            3981               1     99.4972E-03     98.0161E-03    -27.6154E-03    -27.9442E-03
            3982               1     104.151E-03     103.175E-03    -27.2424E-03    -27.4920E-03
            3983               1     106.635E-03     122.485E-03    -26.6396E-03    -28.2148E-03
            3984               1     137.901E-03     108.523E-03    -28.4007E-03    -28.2184E-03
            3985               1     106.528E-03     131.476E-03    -26.7613E-03    -25.1865E-03
            3986               1     94.2793E-03     99.9391E-03    -28.7345E-03    -29.1942E-03
            3987               1     116.633E-03     101.512E-03    -27.7028E-03    -27.1069E-03
            3988               1     111.341E-03     119.223E-03    -29.0915E-03    -27.0778E-03
            3989               1     122.042E-03     118.906E-03    -28.3430E-03    -27.6509E-03
            3990               1     127.056E-03     129.006E-03    -27.8145E-03    -27.1948E-03
            3991               1     136.816E-03     135.347E-03    -27.5756E-03    -28.0941E-03
            3992               1     141.716E-03     139.932E-03    -27.0223E-03    -27.4602E-03
            3993               1     142.599E-03     164.260E-03    -26.1492E-03    -28.4422E-03
            3994               1     182.668E-03     143.016E-03    -28.5403E-03    -28.4407E-03
            3995               1     138.832E-03     171.343E-03    -26.3666E-03    -24.3849E-03
            3996               1     61.0300E-03     61.0496E-03    -35.2341E-03    -34.9356E-03
            3997               1     61.9915E-03     62.0112E-03    -35.7541E-03    -35.5942E-03
            3998               1     63.7893E-03     61.8209E-03    -35.9106E-03    -35.6042E-03
            3999               1     61.5258E-03     62.9299E-03    -35.1413E-03    -34.6275E-03
            4000               1     59.4492E-03     59.1253E-03    -34.2722E-03    -34.0766E-03
            4001               1     61.0636E-03     60.0428E-03    -35.2023E-03    -34.4652E-03
            4002               1     60.8703E-03     60.6563E-03    -34.6125E-03    -34.5732E-03
            4003               1     62.0736E-03     61.9539E-03    -34.6893E-03    -34.6652E-03
            4004               1     63.6037E-03     64.1808E-03    -34.7038E-03    -35.0151E-03
            4005               1     65.5759E-03     66.7148E-03    -34.7263E-03    -35.1329E-03
            4006               1     69.2171E-03     69.1816E-03    -35.1076E-03    -35.2162E-03
            4007               1     72.0153E-03     71.0476E-03    -35.2621E-03    -34.7074E-03
            4008               1     72.7223E-03     78.4405E-03    -34.8868E-03    -35.4388E-03
            4009               1     86.6091E-03     75.0925E-03    -36.3391E-03    -35.2202E-03
            4010               1     74.2873E-03     81.9840E-03    -34.7161E-03    -32.9474E-03
            4011               1     67.2609E-03     68.2808E-03    -34.4816E-03    -35.2407E-03
            4012               1     72.5723E-03     69.3902E-03    -34.8461E-03    -34.1601E-03
            4013               1     73.0268E-03     74.3803E-03    -34.8324E-03    -34.5685E-03
            4014               1     76.7445E-03     76.1528E-03    -34.7395E-03    -34.7580E-03
            4015               1     79.8843E-03     81.4674E-03    -34.7028E-03    -35.2846E-03
            4016               1     85.3549E-03     85.3727E-03    -35.3320E-03    -35.4510E-03
            4017               1     89.9576E-03     88.2062E-03    -35.7735E-03    -35.0991E-03
            4018               1     89.8532E-03     100.439E-03    -35.0710E-03    -36.1385E-03
            4019               1     112.149E-03     93.1044E-03    -37.2290E-03    -35.9563E-03
            4020               1     91.0254E-03     104.757E-03    -35.0957E-03    -32.6245E-03
            4021               1     81.4099E-03     86.5778E-03    -34.3281E-03    -35.8947E-03
            4022               1     94.3047E-03     85.6132E-03    -34.2503E-03    -33.7110E-03
            4023               1     90.8198E-03     95.3891E-03    -34.7727E-03    -34.1760E-03
            4024               1     96.5394E-03     95.5100E-03    -34.4810E-03    -34.6727E-03
            4025               1     100.420E-03     102.357E-03    -34.5454E-03    -35.2430E-03
            4026               1     106.959E-03     107.025E-03    -35.4894E-03    -35.4925E-03
            4027               1     112.356E-03     109.972E-03    -36.0320E-03    -35.1843E-03
            4028               1     111.172E-03     126.224E-03    -35.1306E-03    -36.5310E-03
            4029               1     140.923E-03     114.498E-03    -37.8247E-03    -36.4054E-03
            4030               1     110.770E-03     130.243E-03    -35.2492E-03    -31.9705E-03
            4031               1     71.7954E-03     71.2327E-03    -41.4501E-03    -40.9920E-03
            4032               1     72.0967E-03     71.9484E-03    -41.6118E-03    -41.4681E-03
            4033               1     72.9989E-03     71.9595E-03    -41.9034E-03    -41.5292E-03
            4034               1     71.9375E-03     71.5852E-03    -41.4038E-03    -40.7529E-03
            4035               1     67.6150E-03     67.8017E-03    -39.0231E-03    -39.1266E-03
            4036               1     66.8659E-03     67.9939E-03    -38.5858E-03    -39.1884E-03
            4037               1     67.4591E-03     68.9220E-03    -38.8022E-03    -39.6698E-03
            4038               1     68.6765E-03     69.9176E-03    -39.2568E-03    -39.9757E-03
            4039               1     69.8289E-03     70.1731E-03    -39.6824E-03    -39.7978E-03
            4040               1     71.0394E-03     70.6721E-03    -40.0477E-03    -39.6878E-03
            4041               1     72.1260E-03     71.1757E-03    -40.1214E-03    -39.6105E-03
            4042               1     72.8461E-03     71.1491E-03    -40.2706E-03    -39.1882E-03
            4043               1     72.2547E-03     73.4403E-03    -39.5498E-03    -39.4272E-03
            4044               1     77.9196E-03     72.1935E-03    -41.2802E-03    -39.5429E-03
            4045               1     72.3620E-03     71.4749E-03    -39.5221E-03    -37.2423E-03
            4046               1     69.7263E-03     71.5221E-03    -39.0940E-03    -40.3367E-03
            4047               1     68.5356E-03     71.1181E-03    -37.5159E-03    -39.4487E-03
            4048               1     71.0147E-03     73.4235E-03    -38.9648E-03    -39.9384E-03
            4049               1     73.4073E-03     75.5675E-03    -39.1840E-03    -40.6964E-03
            4050               1     75.4901E-03     76.9532E-03    -39.9692E-03    -40.1723E-03
            4051               1     78.8408E-03     77.9031E-03    -40.7750E-03    -40.1885E-03
            4052               1     79.9707E-03     77.8159E-03    -41.0329E-03    -39.4599E-03
            4053               1     79.6593E-03     81.8984E-03    -40.5976E-03    -39.9170E-03
            4054               1     89.2272E-03     79.0648E-03    -43.1825E-03    -40.3134E-03
            4055               1     79.1487E-03     78.9864E-03    -40.4467E-03    -36.8757E-03
            4056               1     73.5198E-03     77.6975E-03    -38.7559E-03    -41.2020E-03
            4057               1     73.9030E-03     75.9535E-03    -36.0992E-03    -39.2325E-03
            4058               1     76.3005E-03     80.7848E-03    -38.5566E-03    -39.9437E-03
            4059               1     80.2756E-03     83.1935E-03    -38.7218E-03    -41.0055E-03
            4060               1     83.0404E-03     85.5765E-03    -39.7678E-03    -40.1682E-03
            4061               1     87.5864E-03     86.8562E-03    -40.9764E-03    -40.1925E-03
            4062               1     89.1862E-03     86.2465E-03    -41.4952E-03    -39.1507E-03
            4063               1     88.1791E-03     92.1992E-03    -41.0058E-03    -39.9116E-03
            4064               1     101.775E-03     86.9433E-03    -44.5992E-03    -40.5296E-03
            4065               1     86.6563E-03     87.8752E-03    -40.7848E-03    -36.0105E-03
            4066               1     75.9664E-03     75.3921E-03    -43.8587E-03    -43.5108E-03
            4067               1     77.7239E-03     77.8775E-03    -44.8669E-03    -44.9621E-03
            4068               1     78.4912E-03     77.8147E-03    -45.2851E-03    -44.9192E-03
            4069               1     76.2303E-03     74.7732E-03    -44.0029E-03    -43.1276E-03
            4070               1     70.0684E-03     72.8438E-03    -40.4340E-03    -42.0238E-03
            4071               1     71.8781E-03     74.4990E-03    -41.4933E-03    -42.9869E-03
            4072               1     72.5521E-03     74.3048E-03    -41.7815E-03    -42.8264E-03
            4073               1     72.7123E-03     72.6468E-03    -41.8587E-03    -41.7817E-03
            4074               1     73.3323E-03     71.1955E-03    -42.1746E-03    -40.9484E-03
            4075               1     71.9933E-03     70.7676E-03    -41.4018E-03    -40.7263E-03
            4076               1     72.5547E-03     70.1976E-03    -41.7754E-03    -40.4207E-03
            4077               1     71.6575E-03     69.3737E-03    -41.2532E-03    -39.9888E-03
            4078               1     70.1393E-03     71.0959E-03    -40.4403E-03    -40.9990E-03
            4079               1     72.6939E-03     70.1392E-03    -41.9175E-03    -40.4556E-03
            4080               1     69.0617E-03     65.4736E-03    -39.8570E-03    -37.7972E-03
            4081               1     71.3969E-03     77.5874E-03    -41.1357E-03    -44.7577E-03
            4082               1     72.0405E-03     76.9304E-03    -41.5404E-03    -44.2765E-03
            4083               1     74.6835E-03     77.1010E-03    -42.7472E-03    -44.2273E-03
            4084               1     74.8995E-03     74.9923E-03    -42.7465E-03    -42.7312E-03
            4085               1     74.4396E-03     73.0398E-03    -42.3477E-03    -41.6043E-03
            4086               1     74.1435E-03     72.3215E-03    -42.2394E-03    -41.2067E-03
            4087               1     73.3830E-03     69.4984E-03    -41.8354E-03    -39.6832E-03
            4088               1     70.6353E-03     71.0718E-03    -40.4636E-03    -40.7500E-03
            4089               1     74.7733E-03     69.1681E-03    -42.9990E-03    -39.7259E-03
            4090               1     69.9548E-03     62.7265E-03    -40.3009E-03    -36.2105E-03
            4091               1     71.9342E-03     81.3145E-03    -41.3444E-03    -46.8945E-03
            4092               1     71.5737E-03     79.2134E-03    -41.1758E-03    -45.4141E-03
            4093               1     76.3882E-03     79.1809E-03    -43.3181E-03    -45.0967E-03
            4094               1     76.3571E-03     77.3676E-03    -42.9743E-03    -43.4932E-03
            4095               1     75.7848E-03     74.3972E-03    -42.3748E-03    -41.7037E-03
            4096               1     75.3482E-03     73.3370E-03    -42.2123E-03    -41.1073E-03
            4097               1     74.1155E-03     69.2462E-03    -41.6076E-03    -38.9212E-03
            4098               1     70.3757E-03     70.2109E-03    -39.8927E-03    -39.8806E-03
            4099               1     75.6612E-03     67.6289E-03    -43.3636E-03    -38.5883E-03
            4100               1     69.7766E-03     59.0275E-03    -40.0922E-03    -34.0737E-03
            4101               1     77.5789E-03     75.5757E-03    -44.7889E-03    -43.6039E-03
            4102               1     76.5522E-03     77.1297E-03    -44.1532E-03    -44.5140E-03
            4103               1     76.5690E-03     76.7313E-03    -44.0706E-03    -44.2987E-03
            4104               1     76.3020E-03     74.2787E-03    -44.0338E-03    -42.7468E-03
            4105               1     80.0381E-03     77.7631E-03    -46.1385E-03    -44.8685E-03
            4106               1     78.2726E-03     77.0796E-03    -44.8038E-03    -44.3005E-03
            4107               1     73.7511E-03     73.0667E-03    -42.1339E-03    -41.9108E-03
            4108               1     71.7124E-03     69.3855E-03    -41.0842E-03    -39.8320E-03
            4109               1     68.8102E-03     68.8612E-03    -39.5184E-03    -39.6163E-03
            4110               1     67.8675E-03     66.7099E-03    -39.0158E-03    -38.3132E-03
            4111               1     66.5403E-03     67.6102E-03    -38.1155E-03    -38.5913E-03
            4112               1     67.6597E-03     66.6646E-03    -38.4374E-03    -37.8523E-03
            4113               1     66.2815E-03     69.1305E-03    -37.4746E-03    -38.2229E-03
            4114               1     71.6376E-03     69.9673E-03    -38.7196E-03    -39.0108E-03
            4115               1     67.2781E-03     67.8287E-03    -37.6125E-03    -36.4387E-03
            4116               1     87.7226E-03     86.1325E-03    -50.5161E-03    -49.2430E-03
            4117               1     83.8000E-03     82.5184E-03    -48.0106E-03    -47.3175E-03
            4118               1     78.2934E-03     76.3721E-03    -44.5768E-03    -43.6670E-03
            4119               1     74.5939E-03     72.4952E-03    -42.3255E-03    -41.2183E-03
            4120               1     71.0502E-03     70.3987E-03    -40.3748E-03    -39.9024E-03
            4121               1     68.2543E-03     69.0141E-03    -38.5495E-03    -38.7308E-03
            4122               1     67.7760E-03     67.5581E-03    -37.9167E-03    -37.7039E-03
            4123               1     64.0909E-03     69.0280E-03    -35.7347E-03    -36.8755E-03
            4124               1     70.6770E-03     68.1954E-03    -36.0826E-03    -36.7403E-03
            4125               1     62.5499E-03     66.8767E-03    -33.6217E-03    -32.5128E-03
            4126               1     95.6701E-03     95.5488E-03    -54.7397E-03    -53.4255E-03
            4127               1     90.0588E-03     88.0239E-03    -50.9927E-03    -49.9618E-03
            4128               1     82.9609E-03     80.5388E-03    -46.7873E-03    -45.3648E-03
            4129               1     77.9199E-03     75.3578E-03    -43.4277E-03    -42.0969E-03
            4130               1     73.2312E-03     72.6526E-03    -40.8311E-03    -40.1952E-03
            4131               1     69.1273E-03     70.6317E-03    -38.0931E-03    -38.4380E-03
            4132               1     67.9376E-03     68.1294E-03    -36.8145E-03    -36.8253E-03
            4133               1     62.0417E-03     69.8911E-03    -33.5242E-03    -35.1776E-03
            4134               1     71.2025E-03     67.1581E-03    -33.1006E-03    -34.0960E-03
            4135               1     58.9797E-03     68.6301E-03    -29.3981E-03    -28.3303E-03
            4136               1     64.9241E-03     67.0141E-03    -36.9560E-03    -37.5416E-03
            4137               1     65.2258E-03     63.1211E-03    -37.5079E-03    -36.3783E-03
            4138               1     64.6112E-03     62.5802E-03    -36.7013E-03    -35.9789E-03
            4139               1     63.5518E-03     66.8477E-03    -35.5315E-03    -36.4575E-03
            4140               1     75.3618E-03     74.4895E-03    -42.3210E-03    -41.2476E-03
            4141               1     73.6291E-03     70.0791E-03    -41.8182E-03    -39.6444E-03
            4142               1     66.0815E-03     63.9675E-03    -38.1360E-03    -36.5977E-03
            4143               1     62.4850E-03     62.8529E-03    -36.0427E-03    -36.1303E-03
            4144               1     60.2496E-03     60.1425E-03    -34.4751E-03    -34.4354E-03
            4145               1     59.5795E-03     60.7304E-03    -33.5320E-03    -34.2223E-03
            4146               1     59.7175E-03     60.4301E-03    -32.8139E-03    -33.0321E-03
            4147               1     61.0804E-03     62.2468E-03    -32.0303E-03    -33.2572E-03
            4148               1     63.1585E-03     65.2885E-03    -32.7301E-03    -31.9807E-03
            4149               1     68.7105E-03     65.4651E-03    -31.0015E-03    -31.7533E-03
            4150               1     64.8095E-03     72.9524E-03    -28.6540E-03    -30.3742E-03
            4151               1     85.7840E-03     81.6339E-03    -49.4977E-03    -47.0143E-03
            4152               1     81.6947E-03     76.2306E-03    -47.0824E-03    -43.3906E-03
            4153               1     71.8077E-03     68.7351E-03    -40.6278E-03    -38.8984E-03
            4154               1     68.0301E-03     67.5489E-03    -37.6843E-03    -37.1411E-03
            4155               1     65.5615E-03     65.5269E-03    -34.9597E-03    -35.1354E-03
            4156               1     64.9204E-03     65.9639E-03    -33.0822E-03    -33.3402E-03
            4157               1     65.2362E-03     66.2821E-03    -30.7142E-03    -32.4712E-03
            4158               1     66.1208E-03     70.6113E-03    -30.3889E-03    -30.1051E-03
            4159               1     71.9426E-03     67.3720E-03    -25.6637E-03    -28.1229E-03
            4160               1     64.8670E-03     77.7180E-03    -21.6643E-03    -24.9320E-03
            4161               1     98.2928E-03     92.0348E-03    -56.4561E-03    -52.5349E-03
            4162               1     93.0455E-03     84.9458E-03    -52.4371E-03    -47.2076E-03
            4163               1     79.8296E-03     76.3921E-03    -43.1876E-03    -41.0968E-03
            4164               1     75.9883E-03     74.6809E-03    -39.4269E-03    -38.3086E-03
            4165               1     72.7324E-03     72.5579E-03    -35.4291E-03    -35.5842E-03
            4166               1     71.8647E-03     73.1494E-03    -32.6128E-03    -32.8914E-03
            4167               1     72.2200E-03     72.9584E-03    -28.9716E-03    -31.3037E-03
            4168               1     72.0846E-03     78.9171E-03    -27.8291E-03    -27.9067E-03
            4169               1     80.0627E-03     72.8533E-03    -20.3090E-03    -24.3060E-03
            4170               1     70.2477E-03     86.8008E-03    -14.7059E-03    -19.4114E-03
            4171               1     86.1182E-03     94.4515E-03    -22.1320E-03    -24.4514E-03
            4172               1     81.0093E-03     85.1108E-03    -22.6027E-03    -23.3283E-03
            4173               1     94.3661E-03     94.5228E-03    -31.1600E-03    -31.8838E-03
            4174               1     87.1469E-03     91.4738E-03    -26.2711E-03    -27.1589E-03
            4175               1     95.3269E-03     99.6841E-03    -37.4306E-03    -38.1299E-03
            4176               1     93.7216E-03     95.7139E-03    -33.5545E-03    -33.4405E-03
            4177               1     100.901E-03     101.865E-03    -43.8153E-03    -43.9287E-03
            4178               1     96.1027E-03     99.2581E-03    -38.3218E-03    -38.5275E-03
            4179               1     102.200E-03     103.902E-03    -48.1785E-03    -48.1019E-03
            4180               1     100.512E-03     101.504E-03    -43.4591E-03    -42.8505E-03
            4181               1     106.272E-03     105.863E-03    -52.5954E-03    -51.7133E-03
            4182               1     102.508E-03     103.964E-03    -47.4822E-03    -46.9389E-03
            4183               1     109.129E-03     109.143E-03    -56.8323E-03    -55.9071E-03
            4184               1     105.076E-03     105.032E-03    -50.9750E-03    -49.9228E-03
            4185               1     112.956E-03     110.363E-03    -60.6685E-03    -58.5920E-03
            4186               1     106.393E-03     107.078E-03    -54.1670E-03    -53.4080E-03
            4187               1     115.984E-03     114.190E-03    -64.7163E-03    -62.7993E-03
            4188               1     103.692E-03     105.103E-03    -53.5099E-03    -54.5121E-03
            4189               1     109.194E-03     109.209E-03    -61.4632E-03    -62.3525E-03
            4190               1     110.149E-03     108.836E-03    -57.0428E-03    -57.8199E-03
            4191               1     78.2729E-03     86.2741E-03    -28.6872E-03    -30.7682E-03
            4192               1     70.7778E-03     74.8184E-03    -28.3427E-03    -29.0769E-03
            4193               1     87.2781E-03     86.7361E-03    -36.7527E-03    -37.0364E-03
            4194               1     76.0760E-03     79.6599E-03    -30.8109E-03    -31.7178E-03
            4195               1     88.0621E-03     90.6180E-03    -41.3036E-03    -41.5402E-03
            4196               1     83.1135E-03     83.8486E-03    -36.9899E-03    -36.7684E-03
            4197               1     92.7740E-03     92.9596E-03    -45.9848E-03    -45.9251E-03
            4198               1     85.1399E-03     86.8018E-03    -40.4306E-03    -40.4267E-03
            4199               1     93.7112E-03     94.3826E-03    -48.9147E-03    -48.7038E-03
            4200               1     88.8559E-03     88.7999E-03    -44.1296E-03    -43.5319E-03
            4201               1     96.6835E-03     95.8243E-03    -51.8593E-03    -51.1114E-03
            4202               1     90.3629E-03     90.6774E-03    -46.8117E-03    -46.2576E-03
            4203               1     98.7883E-03     98.3117E-03    -54.6628E-03    -53.9107E-03
            4204               1     91.9363E-03     91.2193E-03    -48.8661E-03    -48.0236E-03
            4205               1     101.009E-03     98.5242E-03    -56.7955E-03    -55.1816E-03
            4206               1     92.7271E-03     92.5581E-03    -50.7316E-03    -50.0801E-03
            4207               1     103.194E-03     101.290E-03    -59.1236E-03    -57.6467E-03
            4208               1     88.8398E-03     90.1769E-03    -48.9701E-03    -49.9532E-03
            4209               1     95.5577E-03     97.1948E-03    -54.9080E-03    -56.0357E-03
            4210               1     93.3969E-03     93.0885E-03    -51.3028E-03    -52.0713E-03
            4211               1     76.5077E-03     83.6472E-03    -35.6486E-03    -37.4964E-03
            4212               1     67.7346E-03     71.2833E-03    -34.5755E-03    -35.3588E-03
            4213               1     85.9826E-03     84.6789E-03    -42.8409E-03    -42.6408E-03
            4214               1     71.1988E-03     74.0599E-03    -35.7425E-03    -36.7562E-03
            4215               1     86.3194E-03     87.0979E-03    -45.6875E-03    -45.4707E-03
            4216               1     78.4158E-03     78.1572E-03    -40.9988E-03    -40.7011E-03
            4217               1     89.3453E-03     89.1173E-03    -48.6033E-03    -48.4629E-03
            4218               1     79.6783E-03     80.1201E-03    -42.9259E-03    -42.8488E-03
            4219               1     89.6634E-03     89.5023E-03    -49.9932E-03    -49.7176E-03
            4220               1     82.5877E-03     81.9568E-03    -45.4639E-03    -44.9512E-03
            4221               1     91.0775E-03     90.6693E-03    -51.5381E-03    -51.2217E-03
            4222               1     82.9145E-03     82.4686E-03    -46.4092E-03    -46.0004E-03
            4223               1     91.6784E-03     90.8563E-03    -52.4295E-03    -51.9101E-03
            4224               1     84.3462E-03     83.4139E-03    -47.8285E-03    -47.1511E-03
            4225               1     92.9422E-03     92.0305E-03    -53.5380E-03    -52.9169E-03
            4226               1     83.7073E-03     82.9572E-03    -47.8700E-03    -47.3855E-03
            4227               1     93.1301E-03     91.3977E-03    -53.7512E-03    -52.6876E-03
            4228               1     83.7658E-03     82.8445E-03    -48.2133E-03    -47.6099E-03
            4229               1     94.1595E-03     92.0793E-03    -54.0094E-03    -52.9058E-03
            4230               1     78.2201E-03     79.9501E-03    -45.0934E-03    -46.1410E-03
            4231               1     85.5982E-03     89.3974E-03    -48.7072E-03    -50.1065E-03
            4232               1     79.8042E-03     80.9155E-03    -45.9354E-03    -46.7077E-03
            4233               1     69.2698E-03     73.1865E-03    -39.0222E-03    -40.2266E-03
            4234               1     61.8214E-03     62.6607E-03    -35.6404E-03    -35.7706E-03
            4235               1     76.5814E-03     73.7279E-03    -43.7910E-03    -42.3005E-03
            4236               1     61.9217E-03     62.1714E-03    -35.6527E-03    -35.6308E-03
            4237               1     76.7659E-03     74.1022E-03    -44.2616E-03    -42.7700E-03
            4238               1     62.3355E-03     62.2711E-03    -35.9272E-03    -35.9350E-03
            4239               1     70.1694E-03     73.2772E-03    -40.2130E-03    -41.3665E-03
            4240               1     63.3886E-03     63.5335E-03    -36.4895E-03    -36.6665E-03
            4241               1     215.264E-03     216.368E-03     8.92362E-03     7.76525E-03
            4242               1     217.480E-03     218.556E-03    -29.9692E-03    -29.6573E-03
            4243               1     192.663E-03     193.099E-03    -33.2804E-03    -33.2154E-03
            4244               1     173.131E-03     174.649E-03    -35.9377E-03    -36.1192E-03
            4245               1     152.009E-03     152.465E-03    -36.4364E-03    -36.2452E-03
            4246               1     130.885E-03     132.124E-03    -36.4709E-03    -36.6187E-03
            4247               1     111.221E-03     111.840E-03    -36.6253E-03    -36.5187E-03
            4248               1     92.7526E-03     93.6554E-03    -36.5551E-03    -36.6190E-03
            4249               1     77.4053E-03     77.9173E-03    -36.6119E-03    -36.5668E-03
            4250               1     66.7041E-03     67.1019E-03    -36.5738E-03    -36.6071E-03
            4251               1     63.4729E-03     63.3503E-03    -36.6162E-03    -36.5651E-03
            4252               1     68.4313E-03     68.1926E-03    -36.5486E-03    -36.6328E-03
            4253               1     80.5614E-03     79.5966E-03    -36.6704E-03    -36.5106E-03
            4254               1     96.3670E-03     96.0926E-03    -36.4569E-03    -36.7236E-03
            4255               1     115.820E-03     114.041E-03    -36.8010E-03    -36.3735E-03
            4256               1     134.966E-03     135.333E-03    -36.2799E-03    -36.8903E-03
            4257               1     157.680E-03     154.803E-03    -36.9344E-03    -36.1509E-03
            4258               1     177.407E-03     178.763E-03    -36.1267E-03    -36.9282E-03
            4259               1     201.235E-03     197.647E-03    -36.1422E-03    -35.7202E-03
            4260               1     265.337E-03     260.020E-03    -51.4110E-03    -50.6016E-03
            4261               1     217.116E-03     212.587E-03    -39.8029E-03    -39.9175E-03
            4262               1     195.896E-03     190.345E-03    -29.4822E-03    -29.6472E-03
            4263               1     171.461E-03     166.829E-03    -28.6433E-03    -28.4000E-03
            4264               1     149.461E-03     144.249E-03    -27.6606E-03    -27.8779E-03
            4265               1     127.175E-03     122.445E-03    -27.7615E-03    -27.5920E-03
            4266               1     105.893E-03     101.169E-03    -27.5658E-03    -27.6768E-03
            4267               1     85.5866E-03     81.2700E-03    -27.6503E-03    -27.5765E-03
            4268               1     67.4124E-03     63.8203E-03    -27.5877E-03    -27.6308E-03
            4269               1     53.5625E-03     51.3488E-03    -27.6286E-03    -27.5887E-03
            4270               1     47.7817E-03     48.0876E-03    -27.5845E-03    -27.6322E-03
            4271               1     53.0509E-03     55.4308E-03    -27.6536E-03    -27.5630E-03
            4272               1     66.5133E-03     70.3879E-03    -27.5298E-03    -27.6870E-03
            4273               1     84.5813E-03     89.0068E-03    -27.7468E-03    -27.4716E-03
            4274               1     104.859E-03     109.441E-03    -27.3952E-03    -27.8247E-03
            4275               1     125.894E-03     131.311E-03    -27.9351E-03    -27.3075E-03
            4276               1     148.642E-03     152.740E-03    -27.2266E-03    -28.0281E-03
            4277               1     169.782E-03     176.467E-03    -28.2103E-03    -27.3621E-03
            4278               1     194.697E-03     197.666E-03    -27.5680E-03    -28.0620E-03
            4279               1     230.850E-03     238.820E-03     15.7811E-03     12.2368E-03
            4280               1     199.138E-03     201.424E-03     5.55998E-03     3.65937E-03
            4281               1     193.225E-03     193.131E-03    -20.3122E-03    -20.1184E-03
            4282               1     174.626E-03     174.612E-03    -26.0707E-03    -26.5717E-03
            4283               1     163.378E-03     162.574E-03    -39.3105E-03    -39.1540E-03
            4284               1     141.984E-03     141.496E-03    -41.3776E-03    -41.4103E-03
            4285               1     127.868E-03     127.382E-03    -46.8937E-03    -46.8619E-03
            4286               1     110.110E-03     109.738E-03    -47.7384E-03    -47.7332E-03
            4287               1     98.9444E-03     98.6863E-03    -50.0777E-03    -50.0775E-03
            4288               1     89.7188E-03     89.5859E-03    -50.2750E-03    -50.2715E-03
            4289               1     88.6827E-03     88.7195E-03    -51.1474E-03    -51.1531E-03
            4290               1     92.8877E-03     93.0498E-03    -50.7623E-03    -50.7580E-03
            4291               1     104.150E-03     104.466E-03    -50.7792E-03    -50.7848E-03
            4292               1     118.259E-03     118.596E-03    -49.5196E-03    -49.5145E-03
            4293               1     136.466E-03     136.849E-03    -48.7503E-03    -48.7103E-03
            4294               1     154.029E-03     154.478E-03    -45.6867E-03    -45.7520E-03
            4295               1     175.116E-03     174.869E-03    -43.8059E-03    -43.3801E-03
            4296               1     191.358E-03     192.547E-03    -36.2475E-03    -37.1172E-03
            4297               1     211.923E-03     210.825E-03    -31.8758E-03    -30.4127E-03
            4298               1     241.460E-03     229.410E-03    -11.9629E-03    -12.2854E-03
            4299               1     239.794E-03     237.581E-03    -10.5365E-03    -11.9329E-03
            4300               1     208.877E-03     208.411E-03    -17.8374E-03    -19.4022E-03
            4301               1     195.144E-03     193.009E-03    -32.0704E-03    -31.8510E-03
            4302               1     163.759E-03     162.936E-03    -33.2431E-03    -33.4125E-03
            4303               1     146.097E-03     144.667E-03    -38.0346E-03    -37.9751E-03
            4304               1     121.214E-03     120.040E-03    -38.6962E-03    -38.6538E-03
            4305               1     103.882E-03     102.836E-03    -40.7281E-03    -40.7439E-03
            4306               1     86.2032E-03     85.3530E-03    -41.0307E-03    -40.9987E-03
            4307               1     76.1283E-03     75.7532E-03    -41.8703E-03    -41.9010E-03
            4308               1     72.5814E-03     72.6072E-03    -41.8528E-03    -41.8188E-03
            4309               1     78.6581E-03     79.2881E-03    -42.0564E-03    -42.1031E-03
            4310               1     91.2625E-03     92.0804E-03    -41.6596E-03    -41.6014E-03
            4311               1     109.299E-03     110.439E-03    -41.3908E-03    -41.4560E-03
            4312               1     128.776E-03     130.011E-03    -40.3208E-03    -40.2289E-03
            4313               1     152.119E-03     153.059E-03    -39.5868E-03    -39.4927E-03
            4314               1     172.498E-03     174.918E-03    -36.8057E-03    -37.0460E-03
            4315               1     200.366E-03     199.653E-03    -35.8797E-03    -34.7567E-03
            4316               1     218.094E-03     222.556E-03    -27.4606E-03    -29.8851E-03
            4317               1     240.382E-03     239.847E-03    -13.3303E-03    -12.1319E-03
            4318               1     252.407E-03     245.667E-03    -25.6888E-03    -25.7311E-03
            4319               1     236.137E-03     231.552E-03    -34.8519E-03    -34.8745E-03
            4320               1     192.205E-03     190.764E-03    -34.0532E-03    -34.0399E-03
            4321               1     172.297E-03     169.742E-03    -34.1390E-03    -34.1745E-03
            4322               1     141.491E-03     139.626E-03    -33.7333E-03    -33.6911E-03
            4323               1     119.926E-03     117.892E-03    -33.5126E-03    -33.5550E-03
            4324               1     95.5874E-03     93.7280E-03    -33.4764E-03    -33.4364E-03
            4325               1     76.9049E-03     75.4308E-03    -33.3980E-03    -33.4390E-03
            4326               1     62.4355E-03     61.5275E-03    -33.4332E-03    -33.3897E-03
            4327               1     57.8906E-03     58.1396E-03    -33.3817E-03    -33.4336E-03
            4328               1     64.9195E-03     65.9260E-03    -33.4406E-03    -33.3772E-03
            4329               1     80.4012E-03     82.1301E-03    -33.3706E-03    -33.4521E-03
            4330               1     100.418E-03     102.305E-03    -33.4738E-03    -33.3715E-03
            4331               1     123.762E-03     125.810E-03    -33.3912E-03    -33.5179E-03
            4332               1     146.709E-03     149.354E-03    -33.5787E-03    -33.4357E-03
            4333               1     174.437E-03     175.817E-03    -33.6345E-03    -33.7865E-03
            4334               1     196.318E-03     201.129E-03    -33.7792E-03    -33.5940E-03
            4335               1     231.544E-03     230.910E-03    -34.1367E-03    -34.1801E-03
            4336               1     279.538E-03     268.812E-03    -13.8806E-03    -14.0587E-03
            4337               1     272.248E-03     267.307E-03    -48.7159E-03    -47.1164E-03
            4338               1     220.408E-03     216.914E-03    -46.1803E-03    -44.6635E-03
            4339               1     196.912E-03     193.299E-03    -35.5065E-03    -35.7547E-03
            4340               1     163.961E-03     161.242E-03    -33.9545E-03    -33.7269E-03
            4341               1     140.108E-03     137.040E-03    -29.0755E-03    -29.2036E-03
            4342               1     112.882E-03     110.024E-03    -28.2887E-03    -28.2642E-03
            4343               1     89.3574E-03     86.5907E-03    -26.1078E-03    -26.1582E-03
            4344               1     66.8613E-03     64.4474E-03    -25.8387E-03    -25.8054E-03
            4345               1     49.4035E-03     47.9694E-03    -24.9143E-03    -24.9560E-03
            4346               1     43.3987E-03     43.6367E-03    -25.0074E-03    -24.9581E-03
            4347               1     51.5736E-03     53.5291E-03    -24.7091E-03    -24.7673E-03
            4348               1     70.2056E-03     72.7400E-03    -25.2290E-03    -25.1557E-03
            4349               1     92.6584E-03     95.5546E-03    -25.3611E-03    -25.4640E-03
            4350               1     116.697E-03     119.787E-03    -26.6423E-03    -26.5290E-03
            4351               1     142.767E-03     145.666E-03    -27.2407E-03    -27.5756E-03
            4352               1     167.305E-03     171.159E-03    -30.2795E-03    -29.7864E-03
            4353               1     196.844E-03     199.136E-03    -31.2090E-03    -32.5499E-03
            4354               1     221.001E-03     225.317E-03    -38.8058E-03    -36.3010E-03
            4355               1     327.981E-03     330.440E-03    -53.0100E-03    -50.6143E-03
            4356               1     243.805E-03     241.545E-03    -61.6650E-03    -59.6926E-03
            4357               1     210.087E-03     206.678E-03    -39.2205E-03    -39.4633E-03
            4358               1     183.011E-03     179.135E-03    -37.9733E-03    -37.4008E-03
            4359               1     156.902E-03     152.731E-03    -26.5469E-03    -26.7540E-03
            4360               1     131.403E-03     127.428E-03    -25.0823E-03    -25.0138E-03
            4361               1     106.086E-03     102.097E-03    -19.8275E-03    -19.8886E-03
            4362               1     81.4113E-03     77.6069E-03    -19.0344E-03    -19.0150E-03
            4363               1     57.2301E-03     53.6830E-03    -16.6884E-03    -16.7122E-03
            4364               1     36.9560E-03     34.4357E-03    -16.5083E-03    -16.4880E-03
            4365               1     27.1286E-03     27.8203E-03    -15.6079E-03    -15.6301E-03
            4366               1     39.5054E-03     42.5691E-03    -16.0226E-03    -15.9936E-03
            4367               1     60.6658E-03     64.3934E-03    -15.9703E-03    -16.0073E-03
            4368               1     84.9553E-03     88.9128E-03    -17.2730E-03    -17.2245E-03
            4369               1     109.895E-03     113.800E-03    -17.9755E-03    -18.0842E-03
            4370               1     135.082E-03     139.157E-03    -21.0338E-03    -20.8804E-03
            4371               1     160.830E-03     164.389E-03    -22.5925E-03    -23.1251E-03
            4372               1     185.964E-03     189.971E-03    -29.7091E-03    -28.7717E-03
            4373               1     212.587E-03     215.840E-03    -32.0058E-03    -33.6141E-03
            4374               1     85.5889E-03     87.7842E-03    -24.6829E-03    -24.3224E-03
            4375               1     88.6576E-03     91.9569E-03    -24.7134E-03    -24.7620E-03
            4376               1     94.3101E-03     97.3728E-03    -25.6302E-03    -25.3163E-03
            4377               1     99.6412E-03     103.566E-03    -26.0234E-03    -25.9563E-03
            4378               1     106.122E-03     110.153E-03    -26.8853E-03    -26.7092E-03
            4379               1     112.545E-03     117.050E-03    -27.7534E-03    -27.7014E-03
            4380               1     119.467E-03     124.067E-03    -28.8180E-03    -28.7399E-03
            4381               1     126.417E-03     131.237E-03    -30.2120E-03    -30.1792E-03
            4382               1     133.521E-03     138.383E-03    -31.5399E-03    -31.5164E-03
            4383               1     140.779E-03     145.738E-03    -33.5356E-03    -33.5014E-03
            4384               1     148.043E-03     153.007E-03    -35.1037E-03    -35.1183E-03
            4385               1     155.758E-03     160.772E-03    -37.8753E-03    -37.8194E-03
            4386               1     163.552E-03     168.531E-03    -39.5144E-03    -39.5892E-03
            4387               1     172.594E-03     177.595E-03    -43.5185E-03    -43.4105E-03
            4388               1     182.348E-03     187.251E-03    -44.7507E-03    -44.9684E-03
            4389               1     195.689E-03     200.543E-03    -51.5275E-03    -51.2641E-03
            4390               1     213.277E-03     218.003E-03    -51.1411E-03    -51.7143E-03
            4391               1     242.261E-03     246.682E-03    -67.6345E-03    -66.8636E-03
            4392               1     327.325E-03     331.921E-03    -56.5938E-03    -58.0757E-03
            4393               1     87.2687E-03     91.1784E-03    -26.8035E-03    -27.0118E-03
            4394               1     92.2524E-03     94.8804E-03    -27.5667E-03    -26.9530E-03
            4395               1     96.5025E-03     100.054E-03    -27.7269E-03    -27.5427E-03
            4396               1     102.956E-03     106.082E-03    -28.5550E-03    -28.0275E-03
            4397               1     108.926E-03     112.707E-03    -29.0798E-03    -28.9061E-03
            4398               1     116.008E-03     119.700E-03    -30.0155E-03    -29.7299E-03
            4399               1     122.786E-03     126.816E-03    -31.0256E-03    -30.9226E-03
            4400               1     130.172E-03     134.199E-03    -32.1628E-03    -32.0459E-03
            4401               1     137.335E-03     141.501E-03    -33.7105E-03    -33.6355E-03
            4402               1     144.988E-03     149.170E-03    -35.1039E-03    -35.0868E-03
            4403               1     152.414E-03     156.630E-03    -37.2913E-03    -37.2006E-03
            4404               1     160.690E-03     164.924E-03    -38.9412E-03    -39.0160E-03
            4405               1     168.561E-03     172.778E-03    -41.9502E-03    -41.8255E-03
            4406               1     178.765E-03     182.958E-03    -43.7053E-03    -43.9366E-03
            4407               1     187.863E-03     192.056E-03    -47.7849E-03    -47.6375E-03
            4408               1     204.719E-03     208.620E-03    -49.2285E-03    -49.7382E-03
            4409               1     216.557E-03     220.707E-03    -53.6901E-03    -53.6061E-03
            4410               1     264.445E-03     266.951E-03    -54.2800E-03    -55.1407E-03
            4411               1     267.140E-03     270.171E-03    -15.5050E-03    -17.7286E-03
            4412               1     92.2488E-03     95.3971E-03    -30.5115E-03    -30.5085E-03
            4413               1     94.7698E-03     98.2468E-03    -30.2985E-03    -30.0773E-03
            4414               1     100.184E-03     102.896E-03    -30.4525E-03    -29.8346E-03
            4415               1     105.325E-03     108.750E-03    -30.5960E-03    -30.3500E-03
            4416               1     112.272E-03     115.284E-03    -31.2751E-03    -30.8288E-03
            4417               1     118.680E-03     122.133E-03    -31.8853E-03    -31.7299E-03
            4418               1     126.165E-03     129.452E-03    -32.7889E-03    -32.5685E-03
            4419               1     133.145E-03     136.637E-03    -33.8573E-03    -33.7600E-03
            4420               1     140.975E-03     144.418E-03    -34.9857E-03    -34.9135E-03
            4421               1     148.229E-03     151.740E-03    -36.5313E-03    -36.4381E-03
            4422               1     156.658E-03     160.165E-03    -37.9583E-03    -37.9918E-03
            4423               1     164.055E-03     167.580E-03    -39.9927E-03    -39.8773E-03
            4424               1     173.980E-03     177.492E-03    -41.7432E-03    -41.9122E-03
            4425               1     181.412E-03     185.003E-03    -43.9647E-03    -43.8758E-03
            4426               1     195.413E-03     198.805E-03    -45.7599E-03    -46.1546E-03
            4427               1     202.419E-03     206.264E-03    -45.9811E-03    -46.1672E-03
            4428               1     228.130E-03     230.900E-03    -46.5769E-03    -47.2161E-03
            4429               1     232.716E-03     236.891E-03    -27.0493E-03    -28.7650E-03
            4430               1     233.095E-03     237.912E-03    -11.7431E-03    -11.8260E-03
            4431               1     96.8008E-03     99.0843E-03    -35.6513E-03    -35.1317E-03
            4432               1     98.7276E-03     101.455E-03    -33.6172E-03    -33.2850E-03
            4433               1     102.668E-03     105.817E-03    -33.0573E-03    -32.7543E-03
            4434               1     108.759E-03     111.400E-03    -33.0242E-03    -32.5983E-03
            4435               1     114.552E-03     117.640E-03    -33.1654E-03    -33.0054E-03
            4436               1     121.839E-03     124.555E-03    -33.7092E-03    -33.4548E-03
            4437               1     128.476E-03     131.437E-03    -34.3011E-03    -34.2120E-03
            4438               1     136.231E-03     139.020E-03    -35.0793E-03    -34.9722E-03
            4439               1     143.250E-03     146.140E-03    -36.0073E-03    -35.9334E-03
            4440               1     151.539E-03     154.363E-03    -37.0294E-03    -37.0228E-03
            4441               1     158.704E-03     161.576E-03    -38.2144E-03    -38.1238E-03
            4442               1     168.052E-03     170.879E-03    -39.5677E-03    -39.6560E-03
            4443               1     175.040E-03     177.987E-03    -40.6203E-03    -40.5400E-03
            4444               1     186.627E-03     189.458E-03    -42.2047E-03    -42.4394E-03
            4445               1     192.523E-03     195.788E-03    -41.3052E-03    -41.4584E-03
            4446               1     208.037E-03     210.830E-03    -41.8719E-03    -42.2864E-03
            4447               1     211.289E-03     215.188E-03    -31.2182E-03    -32.3481E-03
            4448               1     216.871E-03     220.521E-03    -23.3410E-03    -23.5791E-03
            4449               1     216.618E-03     219.722E-03    -4.68574E-03    -6.36685E-03
            4450               1     99.4742E-03     101.954E-03    -39.5456E-03    -39.2630E-03
            4451               1     101.806E-03     104.256E-03    -37.2988E-03    -36.8653E-03
            4452               1     106.008E-03     108.503E-03    -35.9075E-03    -35.6585E-03
            4453               1     110.959E-03     113.756E-03    -35.3187E-03    -35.2078E-03
            4454               1     117.644E-03     119.973E-03    -35.2711E-03    -35.1111E-03
            4455               1     123.764E-03     126.312E-03    -35.3662E-03    -35.3365E-03
            4456               1     131.173E-03     133.413E-03    -35.7104E-03    -35.6338E-03
            4457               1     137.805E-03     140.153E-03    -36.0746E-03    -36.0475E-03
            4458               1     145.704E-03     147.907E-03    -36.5997E-03    -36.5874E-03
            4459               1     152.571E-03     154.827E-03    -37.0582E-03    -37.0078E-03
            4460               1     161.205E-03     163.380E-03    -37.7959E-03    -37.8375E-03
            4461               1     168.031E-03     170.305E-03    -38.0189E-03    -37.9501E-03
            4462               1     177.865E-03     180.035E-03    -38.9710E-03    -39.0737E-03
            4463               1     183.951E-03     186.457E-03    -37.7787E-03    -37.7902E-03
            4464               1     194.970E-03     197.340E-03    -38.3397E-03    -38.5428E-03
            4465               1     198.483E-03     201.591E-03    -32.0156E-03    -32.5568E-03
            4466               1     204.101E-03     207.283E-03    -28.3257E-03    -28.5305E-03
            4467               1     203.232E-03     206.642E-03    -14.7377E-03    -16.1071E-03
            4468               1     198.166E-03     202.519E-03    -3.17942E-03    -3.14275E-03
            4469               1     102.360E-03     103.758E-03    -43.3498E-03    -42.7099E-03
            4470               1     104.390E-03     106.719E-03    -40.4956E-03    -40.3584E-03
            4471               1     108.268E-03     110.654E-03    -38.7031E-03    -38.6643E-03
            4472               1     114.000E-03     116.083E-03    -37.8280E-03    -37.8931E-03
            4473               1     119.495E-03     121.660E-03    -37.3542E-03    -37.4376E-03
            4474               1     126.295E-03     128.079E-03    -37.1680E-03    -37.2191E-03
            4475               1     132.393E-03     134.244E-03    -37.0229E-03    -37.0775E-03
            4476               1     139.683E-03     141.321E-03    -37.0252E-03    -37.0610E-03
            4477               1     146.072E-03     147.748E-03    -36.8705E-03    -36.8779E-03
            4478               1     153.889E-03     155.457E-03    -36.9465E-03    -36.9870E-03
            4479               1     160.376E-03     161.999E-03    -36.4968E-03    -36.4660E-03
            4480               1     168.852E-03     170.368E-03    -36.6209E-03    -36.6643E-03
            4481               1     175.059E-03     176.773E-03    -35.1637E-03    -35.1220E-03
            4482               1     183.802E-03     185.388E-03    -35.0925E-03    -35.1096E-03
            4483               1     188.684E-03     190.797E-03    -30.8011E-03    -30.8683E-03
            4484               1     194.195E-03     196.625E-03    -29.2504E-03    -29.2568E-03
            4485               1     194.428E-03     197.175E-03    -20.1519E-03    -20.8159E-03
            4486               1     190.427E-03     194.332E-03    -13.3964E-03    -13.2446E-03
            4487               1     185.627E-03     188.669E-03     619.936E-06    -832.396E-06
            4488               1     104.147E-03     105.903E-03    -46.6049E-03    -46.2934E-03
            4489               1     106.240E-03     108.207E-03    -43.1744E-03    -43.3113E-03
            4490               1     111.217E-03     113.048E-03    -41.5702E-03    -41.8936E-03
            4491               1     116.040E-03     117.751E-03    -40.4306E-03    -40.6843E-03
            4492               1     122.061E-03     123.423E-03    -39.6595E-03    -39.9210E-03
            4493               1     127.546E-03     128.877E-03    -39.0439E-03    -39.2138E-03
            4494               1     134.049E-03     135.144E-03    -38.5313E-03    -38.6702E-03
            4495               1     139.811E-03     140.911E-03    -37.8722E-03    -37.9509E-03
            4496               1     146.714E-03     147.698E-03    -37.3529E-03    -37.4301E-03
            4497               1     152.604E-03     153.604E-03    -36.3506E-03    -36.3692E-03
            4498               1     159.881E-03     160.797E-03    -35.6906E-03    -35.7380E-03
            4499               1     165.707E-03     166.699E-03    -33.8857E-03    -33.8646E-03
            4500               1     172.952E-03     173.814E-03    -32.8906E-03    -32.8690E-03
            4501               1     178.306E-03     179.418E-03    -29.3396E-03    -29.2694E-03
            4502               1     183.536E-03     184.635E-03    -27.5201E-03    -27.3086E-03
            4503               1     187.171E-03     188.746E-03    -21.0936E-03    -20.9036E-03
            4504               1     185.701E-03     188.721E-03    -18.0733E-03    -17.7904E-03
            4505               1     181.227E-03     183.438E-03    -8.00414E-03    -8.66752E-03
            4506               1     170.453E-03     175.034E-03     1.40851E-03     2.13767E-03
            4507               1     104.658E-03     106.262E-03    -48.2428E-03    -48.6676E-03
            4508               1     109.451E-03     110.886E-03    -46.2444E-03    -46.8492E-03
            4509               1     113.606E-03     114.715E-03    -44.5470E-03    -45.0062E-03
            4510               1     118.847E-03     119.710E-03    -43.2361E-03    -43.7406E-03
            4511               1     123.718E-03     124.410E-03    -42.2020E-03    -42.4923E-03
            4512               1     129.314E-03     129.833E-03    -41.1966E-03    -41.4687E-03
            4513               1     134.393E-03     134.866E-03    -40.1356E-03    -40.2838E-03
            4514               1     140.315E-03     140.700E-03    -39.1312E-03    -39.2631E-03
            4515               1     145.461E-03     145.838E-03    -37.7096E-03    -37.7720E-03
            4516               1     151.595E-03     151.929E-03    -36.4593E-03    -36.5307E-03
            4517               1     156.655E-03     157.000E-03    -34.3153E-03    -34.3329E-03
            4518               1     162.639E-03     162.909E-03    -32.5452E-03    -32.5606E-03
            4519               1     167.414E-03     167.742E-03    -29.1103E-03    -29.0781E-03
            4520               1     172.065E-03     172.253E-03    -26.3978E-03    -26.2378E-03
            4521               1     176.289E-03     176.611E-03    -21.0164E-03    -20.7904E-03
            4522               1     176.832E-03     177.307E-03    -17.0367E-03    -16.4139E-03
            4523               1     179.838E-03     180.617E-03    -9.50699E-03    -8.56592E-03
            4524               1     170.662E-03     175.188E-03    -6.47700E-03    -5.73142E-03
            4525               1     159.381E-03     160.650E-03     5.34419E-03     4.05742E-03
            4526               1     108.989E-03     109.597E-03    -51.4654E-03    -52.3166E-03
            4527               1     112.576E-03     112.768E-03    -49.5706E-03    -50.2082E-03
            4528               1     116.988E-03     117.036E-03    -47.8011E-03    -48.4528E-03
            4529               1     121.241E-03     121.062E-03    -46.4238E-03    -46.7816E-03
            4530               1     125.863E-03     125.662E-03    -44.9631E-03    -45.3164E-03
            4531               1     130.275E-03     130.008E-03    -43.5773E-03    -43.7587E-03
            4532               1     135.209E-03     134.940E-03    -42.1945E-03    -42.3599E-03
            4533               1     139.624E-03     139.340E-03    -40.4947E-03    -40.5765E-03
            4534               1     144.688E-03     144.416E-03    -38.8863E-03    -38.9673E-03
            4535               1     148.893E-03     148.611E-03    -36.5262E-03    -36.5610E-03
            4536               1     153.715E-03     153.436E-03    -34.3295E-03    -34.3735E-03
            4537               1     157.449E-03     157.155E-03    -30.8594E-03    -30.8686E-03
            4538               1     161.244E-03     160.887E-03    -27.5723E-03    -27.5418E-03
            4539               1     164.288E-03     163.871E-03    -22.5030E-03    -22.4287E-03
            4540               1     165.511E-03     164.919E-03    -17.4520E-03    -17.1510E-03
            4541               1     168.003E-03     167.166E-03    -10.5984E-03    -10.1104E-03
            4542               1     164.009E-03     163.198E-03    -3.36801E-03    -2.21819E-03
            4543               1     168.794E-03     167.835E-03     4.73019E-03     7.27589E-03
            4544               1     145.849E-03     154.360E-03     6.86409E-03     8.79006E-03
            4545               1     114.134E-03     112.304E-03    -55.7428E-03    -56.0770E-03
            4546               1     116.869E-03     115.359E-03    -53.2551E-03    -53.7100E-03
            4547               1     120.392E-03     118.849E-03    -51.5643E-03    -51.7460E-03
            4548               1     123.875E-03     122.614E-03    -49.6226E-03    -49.8550E-03
            4549               1     127.625E-03     126.422E-03    -47.9401E-03    -48.0352E-03
            4550               1     131.623E-03     130.584E-03    -46.2496E-03    -46.3568E-03
            4551               1     135.441E-03     134.435E-03    -44.3926E-03    -44.4374E-03
            4552               1     139.601E-03     138.683E-03    -42.6224E-03    -42.6700E-03
            4553               1     143.136E-03     142.216E-03    -40.2341E-03    -40.2540E-03
            4554               1     146.992E-03     146.133E-03    -37.9764E-03    -38.0017E-03
            4555               1     149.805E-03     148.920E-03    -34.6015E-03    -34.6119E-03
            4556               1     152.689E-03     151.852E-03    -31.3039E-03    -31.3147E-03
            4557               1     154.299E-03     153.395E-03    -26.4443E-03    -26.4403E-03
            4558               1     155.242E-03     154.309E-03    -21.3018E-03    -21.2630E-03
            4559               1     155.283E-03     154.100E-03    -14.6124E-03    -14.5223E-03
            4560               1     153.239E-03     151.691E-03    -6.39698E-03    -6.16759E-03
            4561               1     152.176E-03     149.627E-03     1.95852E-03     2.48025E-03
            4562               1     147.406E-03     143.307E-03     16.0342E-03     17.1271E-03
            4563               1     156.291E-03     147.388E-03     22.7675E-03     27.4109E-03
            4564               1     73.0905E-03     75.0491E-03    -29.8595E-03    -29.6148E-03
            4565               1     73.3964E-03     76.2213E-03    -29.4704E-03    -29.5867E-03
            4566               1     76.2567E-03     78.6362E-03    -29.9526E-03    -29.7213E-03
            4567               1     78.7094E-03     81.7858E-03    -29.9566E-03    -29.9394E-03
            4568               1     82.3418E-03     85.4182E-03    -30.3944E-03    -30.2636E-03
            4569               1     85.9931E-03     89.4664E-03    -30.8361E-03    -30.8106E-03
            4570               1     90.1408E-03     93.6823E-03    -31.4138E-03    -31.3561E-03
            4571               1     94.4724E-03     98.2038E-03    -32.2804E-03    -32.2610E-03
            4572               1     98.8735E-03     102.662E-03    -32.9889E-03    -32.9727E-03
            4573               1     103.643E-03     107.512E-03    -34.2757E-03    -34.2515E-03
            4574               1     108.204E-03     112.120E-03    -35.0200E-03    -35.0339E-03
            4575               1     113.500E-03     117.445E-03    -36.7801E-03    -36.7352E-03
            4576               1     118.447E-03     122.436E-03    -37.3361E-03    -37.3977E-03
            4577               1     125.005E-03     128.989E-03    -39.8157E-03    -39.7192E-03
            4578               1     131.473E-03     135.517E-03    -39.7277E-03    -39.8941E-03
            4579               1     141.879E-03     145.873E-03    -44.0057E-03    -43.7480E-03
            4580               1     154.774E-03     158.953E-03    -42.2911E-03    -42.6819E-03
            4581               1     178.704E-03     182.773E-03    -53.6897E-03    -52.8652E-03
            4582               1     246.763E-03     252.044E-03    -43.3669E-03    -43.8279E-03
            4583               1     74.0384E-03     77.1082E-03    -30.9138E-03    -31.2292E-03
            4584               1     76.1930E-03     78.0177E-03    -31.2340E-03    -30.8288E-03
            4585               1     77.6612E-03     80.3334E-03    -31.0726E-03    -31.0277E-03
            4586               1     81.2354E-03     83.4220E-03    -31.5331E-03    -31.1532E-03
            4587               1     84.3631E-03     87.1784E-03    -31.7270E-03    -31.6412E-03
            4588               1     88.5946E-03     91.2893E-03    -32.2758E-03    -32.0681E-03
            4589               1     92.6299E-03     95.6557E-03    -32.8871E-03    -32.8288E-03
            4590               1     97.2064E-03     100.232E-03    -33.5515E-03    -33.4676E-03
            4591               1     101.738E-03     104.898E-03    -34.5732E-03    -34.5242E-03
            4592               1     106.563E-03     109.767E-03    -35.3410E-03    -35.3325E-03
            4593               1     111.449E-03     114.674E-03    -36.7977E-03    -36.7294E-03
            4594               1     116.725E-03     120.027E-03    -37.5942E-03    -37.6581E-03
            4595               1     122.129E-03     125.383E-03    -39.5539E-03    -39.4449E-03
            4596               1     128.808E-03     132.157E-03    -40.1716E-03    -40.3519E-03
            4597               1     135.478E-03     138.752E-03    -42.7294E-03    -42.5564E-03
            4598               1     147.329E-03     150.548E-03    -42.7902E-03    -43.1336E-03
            4599               1     156.778E-03     160.052E-03    -45.3031E-03    -45.0415E-03
            4600               1     193.826E-03     195.858E-03    -44.4449E-03    -44.7379E-03
            4601               1     198.315E-03     199.420E-03    -11.7769E-03    -13.3088E-03
            4602               1     78.2114E-03     80.2723E-03    -33.4668E-03    -33.5351E-03
            4603               1     78.1222E-03     80.4451E-03    -32.9562E-03    -32.8726E-03
            4604               1     80.5428E-03     82.2101E-03    -32.8016E-03    -32.3632E-03
            4605               1     82.8631E-03     85.2503E-03    -32.7027E-03    -32.5817E-03
            4606               1     86.9072E-03     88.9122E-03    -33.0962E-03    -32.7727E-03
            4607               1     90.5215E-03     92.9915E-03    -33.4372E-03    -33.3530E-03
            4608               1     95.1494E-03     97.4741E-03    -34.0133E-03    -33.8544E-03
            4609               1     99.4128E-03     101.956E-03    -34.7363E-03    -34.6772E-03
            4610               1     104.373E-03     106.893E-03    -35.4396E-03    -35.3899E-03
            4611               1     108.977E-03     111.566E-03    -36.5193E-03    -36.4535E-03
            4612               1     114.398E-03     117.025E-03    -37.3511E-03    -37.3820E-03
            4613               1     119.211E-03     121.833E-03    -38.7515E-03    -38.6578E-03
            4614               1     125.699E-03     128.386E-03    -39.6377E-03    -39.7732E-03
            4615               1     130.638E-03     133.334E-03    -41.0369E-03    -40.9362E-03
            4616               1     140.132E-03     142.780E-03    -41.6360E-03    -41.9272E-03
            4617               1     144.830E-03     147.725E-03    -41.1570E-03    -41.2083E-03
            4618               1     163.708E-03     165.783E-03    -40.3985E-03    -40.7744E-03
            4619               1     166.676E-03     169.436E-03    -23.6205E-03    -24.9261E-03
            4620               1     167.698E-03     171.518E-03    -8.89522E-03    -9.17878E-03
            4621               1     82.6476E-03     83.5586E-03    -37.4769E-03    -36.9920E-03
            4622               1     81.3673E-03     82.8665E-03    -35.2101E-03    -34.9560E-03
            4623               1     82.4784E-03     84.4044E-03    -34.4761E-03    -34.2775E-03
            4624               1     85.5802E-03     87.1358E-03    -34.2586E-03    -33.9460E-03
            4625               1     88.5744E-03     90.6227E-03    -34.2478E-03    -34.1580E-03
            4626               1     92.9814E-03     94.7327E-03    -34.5983E-03    -34.4147E-03
            4627               1     96.8754E-03     98.9034E-03    -35.0062E-03    -34.9550E-03
            4628               1     101.768E-03     103.667E-03    -35.5447E-03    -35.4686E-03
            4629               1     106.078E-03     108.094E-03    -36.2316E-03    -36.1828E-03
            4630               1     111.422E-03     113.408E-03    -36.9163E-03    -36.9139E-03
            4631               1     115.892E-03     117.922E-03    -37.7938E-03    -37.7262E-03
            4632               1     122.021E-03     124.053E-03    -38.6207E-03    -38.6908E-03
            4633               1     126.310E-03     128.421E-03    -39.3320E-03    -39.2615E-03
            4634               1     133.996E-03     136.066E-03    -40.0605E-03    -40.2444E-03
            4635               1     137.217E-03     139.594E-03    -39.0077E-03    -39.1001E-03
            4636               1     147.739E-03     149.763E-03    -38.4089E-03    -38.7226E-03
            4637               1     148.477E-03     151.265E-03    -29.0274E-03    -29.9218E-03
            4638               1     151.778E-03     154.510E-03    -20.7848E-03    -21.0938E-03
            4639               1     152.116E-03     153.947E-03    -3.67002E-03    -4.94943E-03
            4640               1     84.8364E-03     85.9062E-03    -40.1796E-03    -39.8374E-03
            4641               1     84.0781E-03     85.1954E-03    -37.8316E-03    -37.4475E-03
            4642               1     85.2077E-03     86.4981E-03    -36.3735E-03    -36.1595E-03
            4643               1     87.3239E-03     88.9859E-03    -35.7369E-03    -35.6553E-03
            4644               1     91.1049E-03     92.4392E-03    -35.6183E-03    -35.4988E-03
            4645               1     94.4977E-03     96.0969E-03    -35.6665E-03    -35.6503E-03
            4646               1     99.0750E-03     100.443E-03    -35.9292E-03    -35.8744E-03
            4647               1     103.000E-03     104.502E-03    -36.2330E-03    -36.2164E-03
            4648               1     108.040E-03     109.440E-03    -36.6448E-03    -36.6358E-03
            4649               1     112.175E-03     113.638E-03    -37.0396E-03    -37.0044E-03
            4650               1     117.810E-03     119.223E-03    -37.5794E-03    -37.6089E-03
            4651               1     121.819E-03     123.322E-03    -37.7859E-03    -37.7358E-03
            4652               1     128.300E-03     129.728E-03    -38.3365E-03    -38.4151E-03
            4653               1     131.372E-03     133.081E-03    -37.3310E-03    -37.3435E-03
            4654               1     138.406E-03     140.000E-03    -37.0832E-03    -37.2638E-03
            4655               1     138.786E-03     140.980E-03    -31.5547E-03    -32.0068E-03
            4656               1     141.171E-03     143.438E-03    -26.9634E-03    -27.2447E-03
            4657               1     138.814E-03     141.086E-03    -14.5141E-03    -15.6300E-03
            4658               1     134.212E-03     137.347E-03    -2.54619E-03    -2.75770E-03
            4659               1     87.0949E-03     87.3346E-03    -42.7158E-03    -42.1354E-03
            4660               1     86.1649E-03     87.2054E-03    -39.9628E-03    -39.7762E-03
            4661               1     87.0812E-03     88.2966E-03    -38.2372E-03    -38.1633E-03
            4662               1     89.8976E-03     90.9672E-03    -37.4098E-03    -37.4455E-03
            4663               1     92.6973E-03     93.8974E-03    -37.0071E-03    -37.0499E-03
            4664               1     96.7047E-03     97.6432E-03    -36.8677E-03    -36.9053E-03
            4665               1     100.150E-03     101.179E-03    -36.8041E-03    -36.8369E-03
            4666               1     104.673E-03     105.546E-03    -36.8668E-03    -36.8921E-03
            4667               1     108.371E-03     109.296E-03    -36.8253E-03    -36.8295E-03
            4668               1     113.369E-03     114.211E-03    -36.9651E-03    -36.9904E-03
            4669               1     117.054E-03     117.960E-03    -36.7133E-03    -36.6946E-03
            4670               1     122.574E-03     123.380E-03    -36.8539E-03    -36.8786E-03
            4671               1     125.700E-03     126.702E-03    -35.7983E-03    -35.7807E-03
            4672               1     131.234E-03     132.082E-03    -35.5402E-03    -35.5563E-03
            4673               1     132.470E-03     133.817E-03    -32.0576E-03    -32.1474E-03
            4674               1     134.681E-03     136.224E-03    -29.7113E-03    -29.8068E-03
            4675               1     131.755E-03     133.599E-03    -21.5142E-03    -22.1017E-03
            4676               1     126.129E-03     128.898E-03    -13.6200E-03    -13.7216E-03
            4677               1     121.674E-03     123.500E-03    -13.2893E-06    -1.21745E-03
            4678               1     88.4014E-03     88.9599E-03    -44.7793E-03    -44.4331E-03
            4679               1     87.4484E-03     88.3771E-03    -41.5815E-03    -41.6402E-03
            4680               1     89.5640E-03     90.4384E-03    -40.1514E-03    -40.3703E-03
            4681               1     91.7334E-03     92.5361E-03    -39.1962E-03    -39.3367E-03
            4682               1     95.0260E-03     95.6124E-03    -38.5772E-03    -38.7684E-03
            4683               1     97.9502E-03     98.5110E-03    -38.1548E-03    -38.2540E-03
            4684               1     101.785E-03     102.180E-03    -37.8263E-03    -37.9272E-03
            4685               1     104.955E-03     105.356E-03    -37.4067E-03    -37.4544E-03
            4686               1     109.188E-03     109.496E-03    -37.1287E-03    -37.1807E-03
            4687               1     112.387E-03     112.719E-03    -36.4637E-03    -36.4781E-03
            4688               1     116.965E-03     117.210E-03    -36.1112E-03    -36.1357E-03
            4689               1     119.864E-03     120.201E-03    -34.8327E-03    -34.8298E-03
            4690               1     124.378E-03     124.552E-03    -34.1788E-03    -34.1475E-03
            4691               1     126.215E-03     126.668E-03    -31.4838E-03    -31.4644E-03
            4692               1     128.745E-03     129.066E-03    -29.8176E-03    -29.6669E-03
            4693               1     127.785E-03     128.632E-03    -24.5567E-03    -24.4674E-03
            4694               1     123.586E-03     125.517E-03    -20.2641E-03    -20.2167E-03
            4695               1     116.519E-03     117.841E-03    -10.5603E-03    -11.1528E-03
            4696               1     105.956E-03     109.265E-03     392.807E-06     720.249E-06
            4697               1     88.0114E-03     88.9062E-03    -45.2876E-03    -45.6411E-03
            4698               1     90.0105E-03     90.7394E-03    -43.5867E-03    -44.0539E-03
            4699               1     91.6523E-03     92.0496E-03    -42.1979E-03    -42.4776E-03
            4700               1     94.2715E-03     94.5352E-03    -41.1294E-03    -41.5088E-03
            4701               1     96.7134E-03     96.7659E-03    -40.3809E-03    -40.5484E-03
            4702               1     99.7609E-03     99.7038E-03    -39.6448E-03    -39.8456E-03
            4703               1     102.385E-03     102.251E-03    -38.9111E-03    -38.9979E-03
            4704               1     105.783E-03     105.576E-03    -38.2522E-03    -38.3459E-03
            4705               1     108.399E-03     108.170E-03    -37.2556E-03    -37.2956E-03
            4706               1     112.022E-03     111.737E-03    -36.4713E-03    -36.5152E-03
            4707               1     114.396E-03     114.130E-03    -34.9225E-03    -34.9427E-03
            4708               1     117.910E-03     117.534E-03    -33.7865E-03    -33.7800E-03
            4709               1     119.607E-03     119.328E-03    -31.2158E-03    -31.2171E-03
            4710               1     121.917E-03     121.412E-03    -29.3256E-03    -29.1775E-03
            4711               1     122.058E-03     121.785E-03    -25.1403E-03    -25.0178E-03
            4712               1     120.443E-03     120.074E-03    -21.8608E-03    -21.3728E-03
            4713               1     116.902E-03     117.001E-03    -15.6853E-03    -15.0076E-03
            4714               1     105.326E-03     108.432E-03    -9.90571E-03    -9.57035E-03
            4715               1     93.9964E-03     94.2829E-03     2.49631E-03     1.41018E-03
            4716               1     91.2331E-03     91.7119E-03    -47.3551E-03    -48.0991E-03
            4717               1     92.6315E-03     92.5361E-03    -45.9033E-03    -46.3323E-03
            4718               1     94.5882E-03     94.3994E-03    -44.4554E-03    -44.9678E-03
            4719               1     96.6029E-03     96.0605E-03    -43.4457E-03    -43.6559E-03
            4720               1     98.8343E-03     98.2791E-03    -42.3159E-03    -42.5813E-03
            4721               1     100.952E-03     100.249E-03    -41.3170E-03    -41.4205E-03
            4722               1     103.523E-03     102.799E-03    -40.3330E-03    -40.4537E-03
            4723               1     105.590E-03     104.805E-03    -39.1060E-03    -39.1547E-03
            4724               1     108.320E-03     107.514E-03    -38.0237E-03    -38.0787E-03
            4725               1     110.094E-03     109.259E-03    -36.2891E-03    -36.3153E-03
            4726               1     112.634E-03     111.759E-03    -34.8231E-03    -34.8447E-03
            4727               1     113.742E-03     112.864E-03    -32.2064E-03    -32.2265E-03
            4728               1     115.355E-03     114.350E-03    -29.9686E-03    -29.9224E-03
            4729               1     115.242E-03     114.246E-03    -26.0367E-03    -26.0134E-03
            4730               1     114.405E-03     113.111E-03    -22.5075E-03    -22.2321E-03
            4731               1     112.172E-03     110.812E-03    -17.0368E-03    -16.7150E-03
            4732               1     106.054E-03     104.394E-03    -11.7550E-03    -10.7829E-03
            4733               1     99.7093E-03     98.1357E-03    -5.10485E-03    -3.12689E-03
            4734               1     77.0336E-03     83.6154E-03     3.13589E-03     4.37028E-03
            4735               1     95.6187E-03     94.3562E-03    -50.5661E-03    -50.7846E-03
            4736               1     96.1900E-03     95.1001E-03    -48.4982E-03    -48.8853E-03
            4737               1     97.7158E-03     96.3294E-03    -47.2419E-03    -47.3410E-03
            4738               1     99.0265E-03     97.7803E-03    -45.6894E-03    -45.8719E-03
            4739               1     100.653E-03     99.3079E-03    -44.4310E-03    -44.4808E-03
            4740               1     102.471E-03     101.185E-03    -43.1669E-03    -43.2475E-03
            4741               1     104.116E-03     102.777E-03    -41.7968E-03    -41.8211E-03
            4742               1     106.129E-03     104.804E-03    -40.5540E-03    -40.5882E-03
            4743               1     107.468E-03     106.096E-03    -38.7851E-03    -38.7977E-03
            4744               1     109.243E-03     107.869E-03    -37.2363E-03    -37.2517E-03
            4745               1     109.809E-03     108.389E-03    -34.6852E-03    -34.6963E-03
            4746               1     110.686E-03     109.243E-03    -32.3991E-03    -32.3988E-03
            4747               1     109.859E-03     108.362E-03    -28.6226E-03    -28.6318E-03
            4748               1     108.783E-03     107.171E-03    -25.0046E-03    -24.9543E-03
            4749               1     105.798E-03     104.024E-03    -19.6355E-03    -19.5967E-03
            4750               1     101.267E-03     99.0332E-03    -13.9187E-03    -13.6837E-03
            4751               1     95.2291E-03     92.2385E-03    -6.89142E-03    -6.55218E-03
            4752               1     85.4043E-03     80.8032E-03     2.08937E-03     3.12860E-03
            4753               1     75.8194E-03     67.5294E-03     9.54063E-03     13.1631E-03
            4754               1     68.2516E-03     69.6520E-03    -35.5699E-03    -35.4872E-03
            4755               1     66.5001E-03     68.3878E-03    -34.9134E-03    -35.1173E-03
            4756               1     66.5192E-03     67.7560E-03    -34.8347E-03    -34.7229E-03
            4757               1     66.3726E-03     67.9980E-03    -34.5721E-03    -34.6041E-03
            4758               1     66.7480E-03     68.2407E-03    -34.4145E-03    -34.3434E-03
            4759               1     67.5387E-03     69.2835E-03    -34.4709E-03    -34.4654E-03
            4760               1     68.3555E-03     70.1267E-03    -34.4118E-03    -34.3758E-03
            4761               1     69.7325E-03     71.6614E-03    -34.6932E-03    -34.6827E-03
            4762               1     70.8265E-03     72.8282E-03    -34.6719E-03    -34.6602E-03
            4763               1     72.5840E-03     74.6831E-03    -35.0830E-03    -35.0680E-03
            4764               1     73.7907E-03     75.9935E-03    -34.9264E-03    -34.9362E-03
            4765               1     75.9706E-03     78.2347E-03    -35.4045E-03    -35.3738E-03
            4766               1     77.3508E-03     79.7765E-03    -34.8371E-03    -34.8796E-03
            4767               1     80.6122E-03     83.0717E-03    -35.4814E-03    -35.3973E-03
            4768               1     83.0543E-03     85.8026E-03    -34.0982E-03    -34.2035E-03
            4769               1     89.8166E-03     92.5773E-03    -35.6775E-03    -35.4098E-03
            4770               1     97.5052E-03     100.876E-03    -32.7638E-03    -32.9589E-03
            4771               1     116.137E-03     119.665E-03    -39.1608E-03    -38.2380E-03
            4772               1     167.420E-03     173.460E-03    -29.8764E-03    -29.2362E-03
            4773               1     67.9694E-03     70.1496E-03    -35.5866E-03    -36.0716E-03
            4774               1     67.4102E-03     68.4441E-03    -35.3368E-03    -35.2493E-03
            4775               1     66.7279E-03     68.2485E-03    -35.0464E-03    -35.1570E-03
            4776               1     67.1135E-03     68.1121E-03    -34.9551E-03    -34.7792E-03
            4777               1     67.6121E-03     69.0166E-03    -34.9350E-03    -34.9257E-03
            4778               1     68.4874E-03     69.7478E-03    -34.9367E-03    -34.8178E-03
            4779               1     69.7080E-03     71.2185E-03    -35.1684E-03    -35.1421E-03
            4780               1     70.9289E-03     72.4446E-03    -35.2539E-03    -35.1969E-03
            4781               1     72.5788E-03     74.2208E-03    -35.6690E-03    -35.6402E-03
            4782               1     74.0114E-03     75.7333E-03    -35.7471E-03    -35.7395E-03
            4783               1     75.9624E-03     77.7178E-03    -36.2807E-03    -36.2377E-03
            4784               1     77.6303E-03     79.5397E-03    -36.1867E-03    -36.2303E-03
            4785               1     80.0296E-03     81.8929E-03    -36.7982E-03    -36.7124E-03
            4786               1     82.5268E-03     84.6360E-03    -36.2783E-03    -36.3897E-03
            4787               1     86.1461E-03     88.1255E-03    -37.0016E-03    -36.7910E-03
            4788               1     92.3621E-03     94.5953E-03    -35.7517E-03    -35.9022E-03
            4789               1     98.9253E-03     101.008E-03    -36.1908E-03    -35.6828E-03
            4790               1     124.920E-03     126.274E-03    -34.0593E-03    -33.7333E-03
            4791               1     131.319E-03     130.261E-03    -7.72398E-03    -8.48530E-03
            4792               1     70.4092E-03     71.6384E-03    -36.7883E-03    -37.0741E-03
            4793               1     68.5804E-03     69.7665E-03    -36.2428E-03    -36.3194E-03
            4794               1     67.7672E-03     68.4840E-03    -35.5311E-03    -35.3726E-03
            4795               1     67.7907E-03     68.9201E-03    -35.3891E-03    -35.3752E-03
            4796               1     68.4387E-03     69.2889E-03    -35.2852E-03    -35.1140E-03
            4797               1     69.4530E-03     70.6263E-03    -35.4485E-03    -35.4141E-03
            4798               1     70.7214E-03     71.8052E-03    -35.5761E-03    -35.4728E-03
            4799               1     72.2752E-03     73.5379E-03    -35.9547E-03    -35.9216E-03
            4800               1     73.8884E-03     75.1709E-03    -36.1826E-03    -36.1440E-03
            4801               1     75.7219E-03     77.0646E-03    -36.6977E-03    -36.6566E-03
            4802               1     77.6242E-03     79.0709E-03    -36.9116E-03    -36.9317E-03
            4803               1     79.5863E-03     81.0066E-03    -37.4384E-03    -37.3753E-03
            4804               1     82.0444E-03     83.6414E-03    -37.4462E-03    -37.5353E-03
            4805               1     84.0282E-03     85.5592E-03    -37.6403E-03    -37.5386E-03
            4806               1     88.3576E-03     90.0268E-03    -37.0687E-03    -37.2298E-03
            4807               1     90.0875E-03     91.8031E-03    -35.5320E-03    -35.4149E-03
            4808               1     101.675E-03     102.862E-03    -33.5535E-03    -33.6347E-03
            4809               1     102.382E-03     103.610E-03    -19.5217E-03    -20.3146E-03
            4810               1     104.678E-03     107.529E-03    -5.73276E-03    -6.22579E-03
            4811               1     74.7715E-03     74.5597E-03    -39.9934E-03    -39.5508E-03
            4812               1     70.1436E-03     70.7134E-03    -37.1519E-03    -37.1079E-03
            4813               1     69.1972E-03     69.8410E-03    -36.5458E-03    -36.4044E-03
            4814               1     68.7480E-03     69.3185E-03    -35.8216E-03    -35.6649E-03
            4815               1     69.3805E-03     70.2332E-03    -35.8162E-03    -35.7569E-03
            4816               1     70.3877E-03     71.1239E-03    -35.7956E-03    -35.6743E-03
            4817               1     71.7777E-03     72.7193E-03    -36.0839E-03    -36.0529E-03
            4818               1     73.4088E-03     74.3070E-03    -36.3351E-03    -36.2728E-03
            4819               1     75.1359E-03     76.1287E-03    -36.7767E-03    -36.7456E-03
            4820               1     77.1407E-03     78.1727E-03    -37.1294E-03    -37.1223E-03
            4821               1     78.9198E-03     79.9621E-03    -37.5769E-03    -37.5335E-03
            4822               1     81.3241E-03     82.4708E-03    -37.8776E-03    -37.9275E-03
            4823               1     82.6967E-03     83.8475E-03    -37.9133E-03    -37.8733E-03
            4824               1     85.8267E-03     87.0557E-03    -37.7767E-03    -37.8982E-03
            4825               1     85.7645E-03     87.1844E-03    -36.0381E-03    -36.0943E-03
            4826               1     90.6958E-03     91.8390E-03    -34.3446E-03    -34.5358E-03
            4827               1     87.8994E-03     89.6081E-03    -25.8820E-03    -26.4829E-03
            4828               1     89.1727E-03     90.9299E-03    -17.5680E-03    -17.9848E-03
            4829               1     90.3206E-03     90.7406E-03    -2.44666E-03    -3.13882E-03
            4830               1     75.7334E-03     75.7582E-03    -41.1591E-03    -40.9090E-03
            4831               1     72.8325E-03     72.6567E-03    -39.1620E-03    -38.7244E-03
            4832               1     70.1931E-03     70.5286E-03    -37.1539E-03    -37.0184E-03
            4833               1     70.0919E-03     70.5492E-03    -36.6993E-03    -36.5616E-03
            4834               1     70.3130E-03     70.7896E-03    -36.2089E-03    -36.1053E-03
            4835               1     71.4001E-03     72.0511E-03    -36.3069E-03    -36.2782E-03
            4836               1     72.7922E-03     73.3713E-03    -36.4177E-03    -36.3537E-03
            4837               1     74.3412E-03     75.0305E-03    -36.7230E-03    -36.7104E-03
            4838               1     76.2659E-03     76.9334E-03    -37.0562E-03    -37.0346E-03
            4839               1     77.9188E-03     78.6196E-03    -37.3937E-03    -37.3685E-03
            4840               1     80.2045E-03     80.9499E-03    -37.7801E-03    -37.8001E-03
            4841               1     81.4812E-03     82.2399E-03    -37.8104E-03    -37.7841E-03
            4842               1     84.0241E-03     84.8402E-03    -37.9574E-03    -38.0252E-03
            4843               1     83.7675E-03     84.7623E-03    -36.6410E-03    -36.7065E-03
            4844               1     86.0893E-03     86.9819E-03    -35.5790E-03    -35.7339E-03
            4845               1     82.3442E-03     83.8319E-03    -30.1199E-03    -30.5400E-03
            4846               1     81.3387E-03     82.6197E-03    -24.8196E-03    -25.2058E-03
            4847               1     76.7626E-03     78.0356E-03    -13.4119E-03    -14.1255E-03
            4848               1     74.0347E-03     75.8459E-03    -1.50035E-03    -2.17124E-03
            4849               1     77.9719E-03     77.1888E-03    -43.0665E-03    -42.4029E-03
            4850               1     73.2823E-03     73.3335E-03    -39.7807E-03    -39.5838E-03
            4851               1     72.0055E-03     71.9573E-03    -38.4720E-03    -38.1814E-03
            4852               1     70.9050E-03     71.2152E-03    -37.1663E-03    -37.1097E-03
            4853               1     71.5361E-03     71.8925E-03    -36.9250E-03    -36.8864E-03
            4854               1     72.3849E-03     72.7204E-03    -36.7084E-03    -36.6738E-03
            4855               1     73.6486E-03     74.0667E-03    -36.8025E-03    -36.8162E-03
            4856               1     75.2882E-03     75.6424E-03    -36.9789E-03    -36.9628E-03
            4857               1     76.7337E-03     77.1286E-03    -37.1436E-03    -37.1446E-03
            4858               1     78.7708E-03     79.1548E-03    -37.4444E-03    -37.4517E-03
            4859               1     80.0146E-03     80.4035E-03    -37.4265E-03    -37.4095E-03
            4860               1     82.2065E-03     82.6236E-03    -37.6411E-03    -37.6707E-03
            4861               1     82.3688E-03     82.8669E-03    -36.7825E-03    -36.7988E-03
            4862               1     83.9479E-03     84.4318E-03    -36.3089E-03    -36.3664E-03
            4863               1     81.0010E-03     81.9393E-03    -32.8726E-03    -33.1131E-03
            4864               1     79.2706E-03     80.0614E-03    -29.7603E-03    -29.9629E-03
            4865               1     71.9917E-03     73.4455E-03    -21.5683E-03    -22.1568E-03
            4866               1     65.5399E-03     66.9174E-03    -12.9520E-03    -13.5025E-03
            4867               1     61.5720E-03     62.4621E-03    -435.023E-06    -968.603E-06
            4868               1     77.6684E-03     77.3280E-03    -43.3986E-03    -43.0615E-03
            4869               1     74.8240E-03     74.4326E-03    -41.0660E-03    -40.6770E-03
            4870               1     72.3244E-03     72.5351E-03    -38.8599E-03    -38.8480E-03
            4871               1     72.3876E-03     72.4951E-03    -38.1297E-03    -38.0981E-03
            4872               1     72.5093E-03     72.6732E-03    -37.4653E-03    -37.4829E-03
            4873               1     73.3918E-03     73.5725E-03    -37.2649E-03    -37.3177E-03
            4874               1     74.5773E-03     74.6683E-03    -37.1862E-03    -37.1956E-03
            4875               1     75.6943E-03     75.8159E-03    -37.1135E-03    -37.1509E-03
            4876               1     77.3358E-03     77.3968E-03    -37.2132E-03    -37.2253E-03
            4877               1     78.3903E-03     78.4489E-03    -37.0421E-03    -37.0466E-03
            4878               1     80.1937E-03     80.2446E-03    -37.1228E-03    -37.1417E-03
            4879               1     80.6476E-03     80.6940E-03    -36.4725E-03    -36.4598E-03
            4880               1     81.9924E-03     82.0507E-03    -36.2066E-03    -36.2195E-03
            4881               1     80.4881E-03     80.6914E-03    -34.1426E-03    -34.1860E-03
            4882               1     79.3460E-03     79.5543E-03    -32.5524E-03    -32.5535E-03
            4883               1     73.0909E-03     73.9619E-03    -27.2280E-03    -27.5415E-03
            4884               1     65.9365E-03     66.6913E-03    -21.8249E-03    -22.0690E-03
            4885               1     55.0853E-03     56.5234E-03    -11.6426E-03    -12.1236E-03
            4886               1     47.8839E-03     48.9497E-03     22.1830E-06    -761.122E-06
            4887               1     78.4633E-03     77.8235E-03    -44.2886E-03    -43.8048E-03
            4888               1     74.2060E-03     74.5108E-03    -41.0238E-03    -41.1466E-03
            4889               1     73.8239E-03     73.8391E-03    -39.8726E-03    -39.9189E-03
            4890               1     73.3101E-03     73.3890E-03    -38.8037E-03    -38.9014E-03
            4891               1     73.7833E-03     73.7815E-03    -38.2620E-03    -38.3774E-03
            4892               1     74.4574E-03     74.3355E-03    -37.8974E-03    -37.9487E-03
            4893               1     75.1569E-03     75.0361E-03    -37.5419E-03    -37.6239E-03
            4894               1     76.3056E-03     76.0788E-03    -37.3898E-03    -37.4182E-03
            4895               1     76.9958E-03     76.7623E-03    -36.9861E-03    -37.0222E-03
            4896               1     78.3042E-03     78.0217E-03    -36.8257E-03    -36.8484E-03
            4897               1     78.6719E-03     78.3530E-03    -36.1266E-03    -36.1237E-03
            4898               1     79.7021E-03     79.3744E-03    -35.7484E-03    -35.7589E-03
            4899               1     79.0166E-03     78.6548E-03    -34.2911E-03    -34.2584E-03
            4900               1     78.5131E-03     78.1710E-03    -33.2479E-03    -33.2004E-03
            4901               1     75.0233E-03     74.7872E-03    -30.1301E-03    -30.0963E-03
            4902               1     69.9272E-03     69.7842E-03    -27.3975E-03    -27.2054E-03
            4903               1     59.0928E-03     60.0650E-03    -20.3909E-03    -20.6775E-03
            4904               1     46.3055E-03     46.8266E-03    -12.4771E-03    -12.7700E-03
            4905               1     33.8871E-03     35.5259E-03     201.573E-06     113.715E-06
            4906               1     76.1519E-03     76.8248E-03    -43.2203E-03    -43.6317E-03
            4907               1     75.5619E-03     75.7952E-03    -41.8927E-03    -42.1760E-03
            4908               1     74.7789E-03     74.8291E-03    -40.6649E-03    -40.8621E-03
            4909               1     74.8457E-03     74.7767E-03    -39.7942E-03    -40.0254E-03
            4910               1     75.1327E-03     74.8272E-03    -39.2175E-03    -39.3109E-03
            4911               1     75.3666E-03     75.0434E-03    -38.5560E-03    -38.6908E-03
            4912               1     76.0222E-03     75.5378E-03    -38.1617E-03    -38.2077E-03
            4913               1     76.2558E-03     75.7608E-03    -37.4979E-03    -37.5651E-03
            4914               1     77.0225E-03     76.4387E-03    -37.0844E-03    -37.1133E-03
            4915               1     77.0305E-03     76.4066E-03    -36.2067E-03    -36.2275E-03
            4916               1     77.5821E-03     76.9206E-03    -35.5921E-03    -35.6130E-03
            4917               1     76.9466E-03     76.2018E-03    -34.2262E-03    -34.2021E-03
            4918               1     76.5276E-03     75.7740E-03    -33.1434E-03    -33.1302E-03
            4919               1     74.3968E-03     73.4958E-03    -30.9052E-03    -30.7916E-03
            4920               1     71.1897E-03     70.3352E-03    -28.9242E-03    -28.7690E-03
            4921               1     65.4538E-03     64.4549E-03    -25.1719E-03    -24.8588E-03
            4922               1     55.3995E-03     54.5678E-03    -21.5860E-03    -20.9584E-03
            4923               1     36.9722E-03     38.5634E-03    -12.1617E-03    -12.2914E-03
            4924               1     20.5117E-03     19.9331E-03    -221.083E-09    -770.299E-06
            4925               1     77.4791E-03     78.1706E-03    -43.9305E-03    -44.5589E-03
            4926               1     77.0221E-03     77.0660E-03    -42.9786E-03    -43.2818E-03
            4927               1     76.5962E-03     76.5197E-03    -41.8106E-03    -42.1661E-03
            4928               1     76.6856E-03     76.2000E-03    -41.1367E-03    -41.2558E-03
            4929               1     76.4186E-03     75.9126E-03    -40.1695E-03    -40.3415E-03
            4930               1     76.6537E-03     75.9371E-03    -39.5698E-03    -39.6231E-03
            4931               1     76.4317E-03     75.6954E-03    -38.6602E-03    -38.7421E-03
            4932               1     76.7089E-03     75.8583E-03    -38.0371E-03    -38.0654E-03
            4933               1     76.2973E-03     75.4052E-03    -36.9749E-03    -37.0100E-03
            4934               1     76.3525E-03     75.3992E-03    -36.1598E-03    -36.1810E-03
            4935               1     75.3906E-03     74.3603E-03    -34.7017E-03    -34.7047E-03
            4936               1     74.6834E-03     73.6170E-03    -33.4522E-03    -33.4636E-03
            4937               1     72.6181E-03     71.4047E-03    -31.3395E-03    -31.2878E-03
            4938               1     70.0570E-03     68.8065E-03    -29.3328E-03    -29.2889E-03
            4939               1     65.9640E-03     64.3752E-03    -26.3876E-03    -26.1561E-03
            4940               1     59.3022E-03     57.6578E-03    -23.2997E-03    -23.0107E-03
            4941               1     50.9546E-03     48.5913E-03    -19.3700E-03    -18.5728E-03
            4942               1     34.2420E-03     31.3575E-03    -15.1240E-03    -13.5462E-03
            4943               1     1.04436E-03     5.62386E-03    -92.2366E-06     452.530E-06
            4944               1     80.8515E-03     80.5257E-03    -46.0462E-03    -46.1802E-03
            4945               1     79.2516E-03     78.9800E-03    -44.3488E-03    -44.6628E-03
            4946               1     79.1703E-03     78.4066E-03    -43.6067E-03    -43.6548E-03
            4947               1     78.2648E-03     77.5068E-03    -42.2979E-03    -42.4222E-03
            4948               1     78.1129E-03     77.1703E-03    -41.4933E-03    -41.5175E-03
            4949               1     77.4829E-03     76.4971E-03    -40.3675E-03    -40.4193E-03
            4950               1     77.3761E-03     76.2993E-03    -39.5804E-03    -39.5935E-03
            4951               1     76.6648E-03     75.5254E-03    -38.4020E-03    -38.4244E-03
            4952               1     76.3698E-03     75.1724E-03    -37.4893E-03    -37.4983E-03
            4953               1     75.1412E-03     73.8653E-03    -35.9872E-03    -35.9952E-03
            4954               1     74.1655E-03     72.8488E-03    -34.6919E-03    -34.7000E-03
            4955               1     71.8407E-03     70.4143E-03    -32.5759E-03    -32.5693E-03
            4956               1     69.3364E-03     67.8726E-03    -30.5443E-03    -30.5467E-03
            4957               1     65.1247E-03     63.4518E-03    -27.5767E-03    -27.5241E-03
            4958               1     59.6469E-03     57.8908E-03    -24.3811E-03    -24.3499E-03
            4959               1     52.3800E-03     50.0586E-03    -20.5749E-03    -20.3389E-03
            4960               1     41.0151E-03     38.2978E-03    -15.7407E-03    -15.5267E-03
            4961               1     28.6928E-03     24.3913E-03    -11.9973E-03    -10.9708E-03
            4962               1     13.6809E-03     20.7888E-03    -4.37556E-03    -1.67530E-03
            4963               1     61.6554E-03     61.6473E-03    -35.5708E-03    -35.2916E-03
            4964               1     59.1954E-03     59.9142E-03    -34.1639E-03    -34.2921E-03
            4965               1     59.9878E-03     60.4742E-03    -34.6027E-03    -34.5575E-03
            4966               1     59.5146E-03     60.1546E-03    -34.3210E-03    -34.3382E-03
            4967               1     59.8535E-03     60.5035E-03    -34.4979E-03    -34.4889E-03
            4968               1     59.7382E-03     60.4585E-03    -34.4168E-03    -34.4226E-03
            4969               1     59.8663E-03     60.6205E-03    -34.4697E-03    -34.4662E-03
            4970               1     59.8918E-03     60.6993E-03    -34.4652E-03    -34.4665E-03
            4971               1     59.9207E-03     60.7766E-03    -34.4564E-03    -34.4568E-03
            4972               1     60.0793E-03     60.9719E-03    -34.5261E-03    -34.5239E-03
            4973               1     59.9960E-03     60.9543E-03    -34.4455E-03    -34.4499E-03
            4974               1     60.4216E-03     61.3892E-03    -34.6724E-03    -34.6652E-03
            4975               1     60.0828E-03     61.1468E-03    -34.4310E-03    -34.4411E-03
            4976               1     61.1981E-03     62.2088E-03    -35.0785E-03    -35.0636E-03
            4977               1     60.0283E-03     61.2195E-03    -34.3331E-03    -34.3710E-03
            4978               1     62.4340E-03     63.2475E-03    -35.8013E-03    -35.6687E-03
            4979               1     56.4597E-03     58.3413E-03    -32.0142E-03    -32.3412E-03
            4980               1     58.3504E-03     59.6831E-03    -32.5293E-03    -32.1196E-03
            4981               1     65.4403E-03     71.2806E-03    -19.2348E-03    -18.3575E-03
            4982               1     58.9523E-03     59.4017E-03    -34.0001E-03    -34.1744E-03
            4983               1     60.0709E-03     60.0800E-03    -34.5877E-03    -34.4958E-03
            4984               1     59.9106E-03     60.1507E-03    -34.5061E-03    -34.5311E-03
            4985               1     60.2868E-03     60.4906E-03    -34.6806E-03    -34.6741E-03
            4986               1     60.2217E-03     60.4587E-03    -34.6316E-03    -34.6364E-03
            4987               1     60.3536E-03     60.5946E-03    -34.6735E-03    -34.6694E-03
            4988               1     60.3614E-03     60.6285E-03    -34.6563E-03    -34.6588E-03
            4989               1     60.4372E-03     60.7166E-03    -34.6644E-03    -34.6636E-03
            4990               1     60.5025E-03     60.7957E-03    -34.6760E-03    -34.6748E-03
            4991               1     60.5470E-03     60.8669E-03    -34.6585E-03    -34.6616E-03
            4992               1     60.6788E-03     60.9959E-03    -34.7121E-03    -34.7067E-03
            4993               1     60.6799E-03     61.0425E-03    -34.6495E-03    -34.6566E-03
            4994               1     60.9535E-03     61.2938E-03    -34.8087E-03    -34.8014E-03
            4995               1     60.9225E-03     61.3225E-03    -34.6752E-03    -34.6813E-03
            4996               1     61.7805E-03     62.1249E-03    -35.2675E-03    -35.2509E-03
            4997               1     62.1065E-03     62.6140E-03    -35.2009E-03    -35.2789E-03
            4998               1     64.3822E-03     64.3368E-03    -36.8679E-03    -36.6228E-03
            4999               1     59.1909E-03     60.3077E-03    -32.5376E-03    -32.7446E-03
            5000               1     33.7507E-03     32.8908E-03    -9.09308E-03    -10.4665E-03
            5001               1     59.7097E-03     59.8450E-03    -34.2564E-03    -34.4525E-03
            5002               1     60.5521E-03     60.2911E-03    -34.8084E-03    -34.7311E-03
            5003               1     60.5261E-03     60.3583E-03    -34.7210E-03    -34.7340E-03
            5004               1     60.7844E-03     60.6121E-03    -34.8725E-03    -34.8757E-03
            5005               1     60.7872E-03     60.5770E-03    -34.8245E-03    -34.8206E-03
            5006               1     60.8767E-03     60.6686E-03    -34.8533E-03    -34.8550E-03
            5007               1     60.9238E-03     60.6928E-03    -34.8354E-03    -34.8347E-03
            5008               1     60.9799E-03     60.7384E-03    -34.8359E-03    -34.8355E-03
            5009               1     61.0687E-03     60.8127E-03    -34.8385E-03    -34.8399E-03
            5010               1     61.0817E-03     60.8085E-03    -34.8132E-03    -34.8105E-03
            5011               1     61.2350E-03     60.9531E-03    -34.8399E-03    -34.8439E-03
            5012               1     61.1281E-03     60.8235E-03    -34.7575E-03    -34.7513E-03
            5013               1     61.4565E-03     61.1501E-03    -34.8489E-03    -34.8586E-03
            5014               1     61.0737E-03     60.7363E-03    -34.6539E-03    -34.6395E-03
            5015               1     62.1901E-03     61.8134E-03    -35.0772E-03    -35.0818E-03
            5016               1     61.3818E-03     61.2234E-03    -34.7824E-03    -34.8523E-03
            5017               1     65.0896E-03     64.1044E-03    -36.2571E-03    -36.0237E-03
            5018               1     53.4758E-03     53.7687E-03    -30.3016E-03    -30.5632E-03
            5019               1     16.3575E-03     17.7636E-03    -8.94172E-03    -10.0761E-03
            5020               1     63.2679E-03     62.4518E-03    -36.2993E-03    -36.0460E-03
            5021               1     60.8990E-03     60.5946E-03    -34.8262E-03    -34.9564E-03
            5022               1     61.5691E-03     60.9735E-03    -35.2134E-03    -35.1709E-03
            5023               1     61.1290E-03     60.5629E-03    -34.9044E-03    -34.9176E-03
            5024               1     61.4441E-03     60.8134E-03    -35.0578E-03    -35.0510E-03
            5025               1     61.3687E-03     60.7039E-03    -34.9638E-03    -34.9680E-03
            5026               1     61.5053E-03     60.7891E-03    -35.0024E-03    -34.9998E-03
            5027               1     61.5617E-03     60.8039E-03    -34.9837E-03    -34.9851E-03
            5028               1     61.5918E-03     60.7892E-03    -34.9555E-03    -34.9550E-03
            5029               1     61.7541E-03     60.9042E-03    -34.9935E-03    -34.9932E-03
            5030               1     61.6150E-03     60.7283E-03    -34.8671E-03    -34.8684E-03
            5031               1     61.9782E-03     61.0339E-03    -35.0111E-03    -35.0083E-03
            5032               1     61.4127E-03     60.4455E-03    -34.6457E-03    -34.6494E-03
            5033               1     62.3223E-03     61.2706E-03    -35.0751E-03    -35.0678E-03
            5034               1     60.4560E-03     59.4418E-03    -33.9736E-03    -34.0025E-03
            5035               1     62.4114E-03     61.0075E-03    -34.8983E-03    -34.7834E-03
            5036               1     53.8311E-03     53.2964E-03    -30.0626E-03    -30.3931E-03
            5037               1     50.8121E-03     49.6367E-03    -28.8960E-03    -28.5068E-03
            5038               1     39.0470E-03     43.7714E-03    -15.0978E-03    -14.1011E-03
            5039               1     2.39060E-15     1.99981E-15    -853.967E-18    -671.546E-18
            5040               1     2.56935E-15     1.90753E-15    -420.633E-18    -342.123E-18
            5041               1     2.21619E-15     1.50655E-15    -756.984E-18    -768.529E-18
            5042               1     3.84520E-15     3.00454E-15    -1.56246E-15    -1.48857E-15
            5043               1     3.69014E-15     3.76059E-15    -914.377E-18    -1.37389E-15
            5044               1     3.48237E-15     3.08447E-15    -977.505E-18    -548.008E-18
            5045               1     1.82692E-15     2.41522E-15    -307.486E-18    -455.270E-18
            5046               1     2.90483E-15     3.68468E-15     591.881E-18     933.632E-18
            5047               1     4.34232E-15     4.11588E-15     960.187E-18     565.326E-18
            5048               1     1.25780E-15     917.213E-18    -234.376E-18     234.376E-18
            5049               1     3.75760E-15     3.45413E-15     1.27691E-15     1.01136E-15
            5050               1     4.52308E-15     3.63979E-15    -142.011E-18     142.011E-18
            5051               1     4.44173E-15     3.79200E-15     200.894E-18    -200.894E-18
            5052               1     1.77875E-15     1.36667E-15     369.833E-18     392.924E-18
            5053               1     4.37480E-15     3.88379E-15     2.34946E-15     2.22708E-15
            5054               1     3.77927E-15     2.62989E-15    -9.23651E-18     9.23651E-18
            5055               1     3.34435E-15     2.63277E-15    -28.8641E-18     28.8641E-18
            5056               1     3.39618E-15     3.14474E-15    -748.902E-18    -776.611E-18
            5057               1     3.19368E-15     2.91089E-15    -113.147E-18     113.147E-18
            5058               1     2.30377E-15     1.46895E-15    -1.03408E-15    -491.434E-18
            5059               1     1.15680E-15     2.03544E-15     34.2645E-18    -797.021E-18
            5060               1     1.97144E-15     2.53399E-15     246.294E-18     516.462E-18
            5061               1     362.011E-18     708.121E-18    -197.430E-18     197.430E-18
            5062               1     3.53366E-15     3.26728E-15    -1.57400E-15    -1.47702E-15
            5063               1     3.28910E-15     3.36601E-15    -1.55900E-15    -1.49203E-15
            5064               1     1.91734E-15     2.13488E-15     88.9014E-18    -88.9014E-18
            5065               1     522.925E-18     348.389E-18     122.384E-18    -122.384E-18
            5066               1     3.30545E-15     3.28273E-15     698.101E-18     827.412E-18
            5067               1     261.750E-18     211.952E-18    -101.602E-18     101.602E-18
            5068               1     3.03540E-15     3.64070E-15    -1.23456E-15    -1.81646E-15
            5069               1     1.88424E-15     2.09105E-15     1.08756E-15     1.20071E-15
            5070               1     2.82546E-15     3.18389E-15    -160.484E-18     160.484E-18
            5071               1     2.81608E-15     2.49789E-15    -1.61788E-15    -1.43315E-15
            5072               1     1.08332E-15     973.351E-18     51.9553E-18    -51.9553E-18
            5073               1     2.29052E-15     2.51137E-15    -740.820E-18    -784.693E-18
            5074               1     3.26305E-15     3.38185E-15    -1.55438E-15    -1.49665E-15
            5075               1     1.41784E-15     1.42754E-15    -763.911E-18    -761.602E-18
            5076               1     2.45229E-15     2.92798E-15    -1.39620E-15    -1.65482E-15
            5077               1     1.56403E-15     2.53348E-15    -404.842E-18    -1.12067E-15
            5078               1     3.08401E-15     3.08807E-15    -382.160E-18     382.160E-18
            5079               1     1.69130E-15     1.79630E-15    -604.581E-18    -920.932E-18
            5080               1     1.74240E-15     976.665E-18     554.563E-18     208.194E-18
            5081               1     3.47615E-15     3.42884E-15     1.55322E-15     1.49780E-15
            5082               1     3.49380E-15     3.12436E-15     1.63289E-15     1.41814E-15
            5083               1     2.29759E-15     1.95286E-15    -482.980E-18    -279.777E-18
            5084               1     971.366E-18     1.49311E-15     338.659E-18     424.097E-18
            5085               1     1.57403E-15     1.77450E-15    -684.246E-18    -841.267E-18
            5086               1     2.60732E-15     3.02075E-15     1.08179E-15     1.20648E-15
            5087               1     1.12158E-15     1.46275E-15     280.931E-18     481.825E-18
            5088               1     1.41373E-15     1.25343E-15    -807.785E-18    -717.729E-18
            5089               1     2.04274E-15     1.95753E-15    -5.77282E-18     5.77282E-18
            5090               1     1.78112E-15     1.62563E-15     792.775E-18     732.738E-18
            5091               1     2.46709E-15     2.36404E-15     832.030E-18     693.483E-18
            5092               1     2.53954E-15     2.96036E-15     1.42622E-15     1.62481E-15
            5093               1     2.94394E-15     2.50276E-15     949.796E-18     575.717E-18
            5094               1     1.70664E-15     983.850E-18    -964.805E-18    -560.708E-18
            5095               1     1.27468E-15     1.56450E-15    -658.846E-18    -866.667E-18
            5096               1     1.51601E-15     1.47428E-15     308.641E-18     454.116E-18
            5097               1     1.26830E-15     1.15398E-15     467.971E-18     294.786E-18
            5098               1     885.871E-18     1.14328E-15     19.6276E-18    -19.6276E-18
            5099               1     2.03378E-15     2.35244E-15     122.756E-18     640.000E-18
            5100               1     1.69584E-15     2.04369E-15    -663.464E-18    -862.049E-18
            5101               1     1.14023E-15     1.36535E-15     185.103E-18     577.654E-18
            5102               1     1.40375E-15     1.12516E-15     469.125E-18     293.631E-18
            5103               1     2.35723E-15     2.02223E-15     336.350E-18     426.406E-18
            5104               1     1.00400E-15     1.00639E-15     16.1639E-18    -16.1639E-18
            5105               1     2.13078E-15     1.85672E-15    -1.21918E-15    -1.06909E-15
            5106               1     1.58492E-15     971.310E-18     553.408E-18     209.348E-18
            5107               1     4.03018E-15     3.95821E-15     1.56823E-15     1.48279E-15
            5108               1     2.32107E-15     2.51541E-15     751.211E-18     774.302E-18
            5109               1     1.97646E-15     1.78856E-15    -819.330E-18    -706.183E-18
            5110               1     3.01310E-15     3.06021E-15     33.4823E-18    -33.4823E-18
            5111               1     1.43397E-15     1.28250E-15     789.312E-18     736.202E-18
            5112               1     2.54257E-15     2.36368E-15     771.993E-18     753.520E-18
            5113               1     2.38118E-15     2.43377E-15     829.721E-18     695.792E-18
            5114               1     1.78872E-15     1.76276E-15     769.684E-18     755.829E-18
            5115               1     2.35800E-15     1.45261E-15    -1.10451E-15    -421.006E-18
            5116               1     4.13573E-15     3.99569E-15    -1.99464E-15    -1.81914E-15
            5117               1     1.20990E-15     1.17792E-15    -91.2105E-18     91.2105E-18
            5118               1     2.10554E-15     1.96783E-15     208.976E-18    -208.976E-18
            5119               1     1.18492E-15     1.52831E-15     649.609E-18     875.904E-18
            5120               1     948.104E-18     1.51446E-15    -189.721E-18    -573.036E-18
            5121               1     3.37600E-15     3.24398E-15    -1.53821E-15    -1.51281E-15
            5122               1     1.03023E-15     1.02826E-15     58.8827E-18    -58.8827E-18
            5123               1     738.310E-18     783.474E-18     365.214E-18     397.542E-18
            5124               1     149.578E-18     141.432E-18     38.1006E-18    -38.1006E-18
            5125               1     1.59611E-15     2.00782E-15     578.027E-18     947.487E-18
            5126               1     1.34250E-15     1.53262E-15    -708.492E-18    -817.021E-18
            5127               1     2.60835E-15     2.18826E-15    -886.295E-18    -639.218E-18
            5128               1     3.20846E-15     3.44667E-15    -1.39851E-15    -1.65252E-15
            5129               1     2.32995E-15     2.16535E-15    -27.7095E-18     27.7095E-18
            5130               1     1.44679E-15     1.29656E-15     807.785E-18     717.729E-18
            5131               1     2.45604E-15     1.96392E-15    -879.367E-18    -646.146E-18
            5132               1     342.249E-18     171.941E-18    -24.2458E-18     24.2458E-18
            5133               1     2.52105E-15     2.52511E-15    -821.639E-18    -703.874E-18
            5134               1     2.10452E-15     2.31396E-15     354.451E-18    -354.451E-18
            5135               1     1.53484E-15     1.13041E-15     880.522E-18     644.991E-18
            5136               1     2.37455E-15     2.10370E-15     349.051E-18     413.706E-18
            5137               1     3.02045E-15     2.81106E-15     1.17877E-15     1.10950E-15
            5138               1     2.18630E-15     2.08735E-15    -19.6276E-18     19.6276E-18
            5139               1     2.18317E-15     2.09940E-15    -55.4190E-18     55.4190E-18
            5140               1     3.95759E-15     4.16862E-15    -23.0913E-18     23.0913E-18
            5141               1     829.410E-18     499.357E-18    -477.207E-18    -285.550E-18
            5142               1     3.08850E-15     3.55577E-15    -1.32000E-15    -1.73103E-15
            5143               1     3.12045E-15     2.56883E-15    -1.34041E-15    -947.859E-18
            5144               1     1.10618E-15     1.58640E-15    -627.673E-18    -897.841E-18
            5145               1     355.076E-18     468.306E-18     26.5550E-18    -26.5550E-18
            5146               1     2.20566E-15     2.58942E-15    -651.919E-18    -873.595E-18
            5147               1     2.71712E-15     2.18240E-15    -897.841E-18    -627.673E-18
            5148               1     3.10803E-15     2.65509E-15     1.63751E-15     1.41352E-15
            5149               1     336.098E-18     464.651E-18     137.393E-18    -137.393E-18
            5150               1     2.18993E-15     1.83090E-15     12.7002E-18    -12.7002E-18
            5151               1     1.45074E-15     1.26701E-15     835.494E-18     690.019E-18
            5152               1     3.46436E-15     3.34546E-15    -1.58440E-15    -1.46663E-15
            5153               1     2.26679E-15     2.50051E-15    -13.8548E-18     13.8548E-18
            5154               1     1.98315E-15     2.25378E-15    -395.233E-18    -367.524E-18
            5155               1     2.07818E-15     1.95441E-15    -758.138E-18    -767.375E-18
            5156               1     1.04921E-15     994.959E-18     58.8827E-18    -58.8827E-18
            5157               1     1.01175E-15     1.00977E-15    -42.7188E-18     42.7188E-18
            5158               1     2.55332E-15     2.82699E-15    -1.44585E-15    -1.60518E-15
            5159               1     883.062E-18     782.935E-18    -396.388E-18    -366.369E-18
            5160               1     3.33707E-15     3.28958E-15     1.57285E-15     1.47818E-15
            5161               1     2.52178E-15     2.76997E-15     1.45508E-15     1.59594E-15
            5162               1     4.43761E-15     4.58785E-15     1.23419E-15     1.05408E-15
            5163               1     2.22159E-15     2.83897E-15     692.328E-18     833.185E-18
            5164               1     3.46952E-15     3.16012E-15     1.53475E-15     1.51628E-15
            5165               1     1.56654E-15     1.57580E-15     752.366E-18     773.148E-18
            5166               1     4.53500E-15     5.06041E-15     1.45162E-15     1.59941E-15
            5167               1     1.76359E-15     2.22515E-15     64.6555E-18    -64.6555E-18
            5168               1     2.94481E-15     2.34103E-15    -1.69985E-15    -1.35117E-15
            5169               1     1.33749E-15     1.35213E-15    -758.138E-18    -767.375E-18
            5170               1     2.07289E-15     2.65946E-15    -12.7002E-18     12.7002E-18
            5171               1     2.70158E-15     2.12804E-15     761.602E-18     763.911E-18
            5172               1     99.1766E-03     103.065E-03    -24.9577E-03    -24.2954E-03
            5173               1     105.308E-03     110.990E-03    -24.5795E-03    -24.4208E-03
            5174               1     114.197E-03     120.098E-03    -25.3798E-03    -25.0918E-03
            5175               1     122.560E-03     129.264E-03    -25.4323E-03    -25.4225E-03
            5176               1     132.010E-03     138.674E-03    -26.1389E-03    -26.0781E-03
            5177               1     141.004E-03     147.910E-03    -26.5757E-03    -26.5912E-03
            5178               1     150.380E-03     157.210E-03    -27.2641E-03    -27.2590E-03
            5179               1     159.492E-03     166.419E-03    -28.0532E-03    -28.0560E-03
            5180               1     168.765E-03     175.626E-03    -28.9271E-03    -28.9376E-03
            5181               1     177.887E-03     184.826E-03    -30.3205E-03    -30.3039E-03
            5182               1     187.097E-03     193.947E-03    -31.7083E-03    -31.7331E-03
            5183               1     196.204E-03     203.164E-03    -34.2026E-03    -34.1507E-03
            5184               1     205.434E-03     212.254E-03    -36.5621E-03    -36.6120E-03
            5185               1     214.672E-03     221.686E-03    -40.9688E-03    -40.8286E-03
            5186               1     224.652E-03     231.458E-03    -44.6098E-03    -44.7570E-03
            5187               1     235.250E-03     242.275E-03    -52.5776E-03    -52.2864E-03
            5188               1     250.808E-03     257.547E-03    -55.5064E-03    -55.9705E-03
            5189               1     273.654E-03     280.326E-03    -73.6139E-03    -72.8953E-03
            5190               1     358.312E-03     365.161E-03    -62.1723E-03    -63.3699E-03
            5191               1     101.690E-03     106.412E-03    -28.6040E-03    -27.9943E-03
            5192               1     109.927E-03     114.010E-03    -29.0137E-03    -28.1897E-03
            5193               1     117.344E-03     122.331E-03    -28.7106E-03    -28.5617E-03
            5194               1     126.893E-03     131.544E-03    -29.3982E-03    -29.1305E-03
            5195               1     135.429E-03     140.527E-03    -29.5818E-03    -29.6064E-03
            5196               1     144.863E-03     149.843E-03    -30.1351E-03    -30.0819E-03
            5197               1     153.764E-03     158.904E-03    -30.5575E-03    -30.5804E-03
            5198               1     163.164E-03     168.270E-03    -31.1004E-03    -31.1079E-03
            5199               1     172.271E-03     177.430E-03    -31.8600E-03    -31.8412E-03
            5200               1     181.815E-03     186.973E-03    -32.6060E-03    -32.6503E-03
            5201               1     191.115E-03     196.282E-03    -34.0106E-03    -33.9359E-03
            5202               1     201.029E-03     206.184E-03    -35.2936E-03    -35.3745E-03
            5203               1     210.531E-03     215.690E-03    -37.8557E-03    -37.6868E-03
            5204               1     221.585E-03     226.635E-03    -40.2476E-03    -40.3743E-03
            5205               1     231.057E-03     236.210E-03    -44.5535E-03    -44.2515E-03
            5206               1     247.424E-03     252.288E-03    -49.0034E-03    -49.2746E-03
            5207               1     254.683E-03     259.959E-03    -54.1411E-03    -54.0924E-03
            5208               1     300.318E-03     303.802E-03    -58.2570E-03    -58.6753E-03
            5209               1     290.931E-03     294.599E-03    -14.4252E-03    -17.5274E-03
            5210               1     106.919E-03     111.074E-03    -33.6982E-03    -33.2918E-03
            5211               1     113.058E-03     117.164E-03    -32.6621E-03    -32.5314E-03
            5212               1     122.349E-03     125.532E-03    -32.9428E-03    -32.6733E-03
            5213               1     130.292E-03     133.841E-03    -32.9630E-03    -32.9931E-03
            5214               1     139.575E-03     142.766E-03    -33.3280E-03    -33.2277E-03
            5215               1     148.047E-03     151.458E-03    -33.4641E-03    -33.5038E-03
            5216               1     157.252E-03     160.588E-03    -33.7099E-03    -33.6890E-03
            5217               1     166.024E-03     169.439E-03    -33.9330E-03    -33.9313E-03
            5218               1     175.399E-03     178.834E-03    -34.1537E-03    -34.1843E-03
            5219               1     184.414E-03     187.841E-03    -34.5953E-03    -34.5374E-03
            5220               1     194.220E-03     197.702E-03    -34.9331E-03    -35.0165E-03
            5221               1     203.474E-03     206.899E-03    -35.8083E-03    -35.6818E-03
            5222               1     214.281E-03     217.700E-03    -36.5919E-03    -36.7234E-03
            5223               1     223.666E-03     227.085E-03    -37.9875E-03    -37.7856E-03
            5224               1     237.472E-03     240.608E-03    -40.1450E-03    -40.2860E-03
            5225               1     245.947E-03     249.511E-03    -40.1694E-03    -40.0179E-03
            5226               1     269.840E-03     272.949E-03    -45.5560E-03    -45.7196E-03
            5227               1     267.181E-03     271.306E-03    -24.3034E-03    -26.4731E-03
            5228               1     252.787E-03     258.994E-03    -10.6286E-03    -10.0757E-03
            5229               1     111.018E-03     114.041E-03    -38.6182E-03    -38.7895E-03
            5230               1     118.919E-03     121.395E-03    -37.4087E-03    -37.7464E-03
            5231               1     126.250E-03     128.501E-03    -37.1702E-03    -37.3438E-03
            5232               1     134.950E-03     136.622E-03    -37.0579E-03    -37.0935E-03
            5233               1     142.895E-03     144.689E-03    -37.0047E-03    -37.0724E-03
            5234               1     151.634E-03     153.264E-03    -36.9358E-03    -36.9070E-03
            5235               1     159.928E-03     161.644E-03    -36.7968E-03    -36.8108E-03
            5236               1     168.826E-03     170.543E-03    -36.6354E-03    -36.6374E-03
            5237               1     177.335E-03     179.053E-03    -36.4189E-03    -36.3857E-03
            5238               1     186.536E-03     188.325E-03    -36.1237E-03    -36.1801E-03
            5239               1     195.148E-03     196.868E-03    -35.7926E-03    -35.7091E-03
            5240               1     204.971E-03     206.777E-03    -35.3475E-03    -35.4654E-03
            5241               1     213.605E-03     215.336E-03    -34.7016E-03    -34.5906E-03
            5242               1     224.810E-03     226.459E-03    -34.3055E-03    -34.4449E-03
            5243               1     233.375E-03     235.162E-03    -31.9776E-03    -31.9248E-03
            5244               1     246.791E-03     248.082E-03    -32.1791E-03    -32.1112E-03
            5245               1     255.659E-03     257.749E-03    -20.4017E-03    -20.6861E-03
            5246               1     252.028E-03     256.824E-03    -20.4700E-03    -19.9084E-03
            5247               1     234.755E-03     237.423E-03    -276.400E-06    -2.72962E-03
            5248               1     117.285E-03     118.649E-03    -43.9555E-03    -44.9127E-03
            5249               1     124.008E-03     124.635E-03    -42.8404E-03    -43.2896E-03
            5250               1     131.392E-03     131.715E-03    -41.6985E-03    -42.0792E-03
            5251               1     138.785E-03     138.999E-03    -41.3711E-03    -41.5057E-03
            5252               1     146.720E-03     146.784E-03    -40.8286E-03    -40.8632E-03
            5253               1     154.526E-03     154.615E-03    -40.4534E-03    -40.4804E-03
            5254               1     162.783E-03     162.852E-03    -39.9898E-03    -39.9752E-03
            5255               1     170.791E-03     170.848E-03    -39.4337E-03    -39.4211E-03
            5256               1     179.236E-03     179.344E-03    -38.8108E-03    -38.8301E-03
            5257               1     187.185E-03     187.220E-03    -37.8734E-03    -37.8269E-03
            5258               1     195.796E-03     195.941E-03    -36.8505E-03    -36.9217E-03
            5259               1     203.398E-03     203.426E-03    -35.1035E-03    -35.0338E-03
            5260               1     212.311E-03     212.463E-03    -33.3358E-03    -33.4612E-03
            5261               1     219.294E-03     219.375E-03    -29.7260E-03    -29.7100E-03
            5262               1     228.068E-03     228.065E-03    -26.5853E-03    -26.6612E-03
            5263               1     234.937E-03     235.027E-03    -17.8958E-03    -18.0368E-03
            5264               1     235.589E-03     235.686E-03    -11.0181E-03    -10.4825E-03
            5265               1     247.427E-03     247.228E-03     3.29320E-03     4.39415E-03
            5266               1     217.613E-03     225.706E-03     1.70078E-03     3.51646E-03
            5267               1     123.588E-03     121.360E-03    -50.2611E-03    -50.6002E-03
            5268               1     129.043E-03     127.431E-03    -47.6288E-03    -48.0633E-03
            5269               1     135.840E-03     134.207E-03    -46.6519E-03    -46.7395E-03
            5270               1     142.585E-03     141.186E-03    -45.3474E-03    -45.4547E-03
            5271               1     150.010E-03     148.531E-03    -44.7387E-03    -44.7507E-03
            5272               1     157.531E-03     156.109E-03    -43.9547E-03    -43.9611E-03
            5273               1     165.202E-03     163.680E-03    -43.2900E-03    -43.2849E-03
            5274               1     172.965E-03     171.481E-03    -42.5299E-03    -42.5306E-03
            5275               1     180.487E-03     178.896E-03    -41.4794E-03    -41.4673E-03
            5276               1     188.121E-03     186.607E-03    -40.3825E-03    -40.3972E-03
            5277               1     195.047E-03     193.391E-03    -38.4471E-03    -38.4273E-03
            5278               1     202.175E-03     200.679E-03    -36.5297E-03    -36.5655E-03
            5279               1     207.809E-03     206.134E-03    -32.7009E-03    -32.6886E-03
            5280               1     213.658E-03     212.253E-03    -28.9579E-03    -29.0137E-03
            5281               1     216.920E-03     215.383E-03    -21.2317E-03    -21.2778E-03
            5282               1     218.358E-03     217.087E-03    -12.9785E-03    -12.9660E-03
            5283               1     219.215E-03     217.495E-03    -346.473E-06    -213.481E-06
            5284               1     212.750E-03     210.572E-03     18.2484E-03     18.8289E-03
            5285               1     229.486E-03     223.443E-03     29.0908E-03     32.7568E-03
            5286               1     92.4983E-03     94.5694E-03    -27.5065E-03    -27.5501E-03
            5287               1     99.4031E-03     101.519E-03    -27.5065E-03    -27.5501E-03
            5288               1     106.455E-03     108.606E-03    -27.5065E-03    -27.5501E-03
            5289               1     113.626E-03     115.807E-03    -27.5065E-03    -27.5501E-03
            5290               1     120.896E-03     123.100E-03    -27.5065E-03    -27.5501E-03
            5291               1     128.248E-03     130.472E-03    -27.5065E-03    -27.5501E-03
            5292               1     135.667E-03     137.908E-03    -27.5065E-03    -27.5501E-03
            5293               1     143.145E-03     145.400E-03    -27.5065E-03    -27.5501E-03
            5294               1     150.671E-03     152.938E-03    -27.5065E-03    -27.5501E-03
            5295               1     158.240E-03     160.517E-03    -27.5065E-03    -27.5501E-03
            5296               1     165.845E-03     168.131E-03    -27.5065E-03    -27.5501E-03
            5297               1     173.482E-03     175.775E-03    -27.5065E-03    -27.5501E-03
            5298               1     181.146E-03     183.446E-03    -27.5065E-03    -27.5501E-03
            5299               1     188.834E-03     191.140E-03    -27.5065E-03    -27.5501E-03
            5300               1     196.544E-03     198.855E-03    -27.5065E-03    -27.5501E-03
            5301               1     204.273E-03     206.588E-03    -27.5065E-03    -27.5501E-03
            5302               1     212.018E-03     214.338E-03    -27.5065E-03    -27.5501E-03
            5303               1     219.779E-03     222.102E-03    -27.5065E-03    -27.5501E-03
            5304               1     227.553E-03     229.880E-03    -27.5065E-03    -27.5501E-03
            5305               1     91.7395E-03     99.9190E-03    -22.2860E-03    -24.5163E-03
            5306               1     91.8242E-03     96.1669E-03    -23.1545E-03    -23.2600E-03
            5307               1     101.079E-03     102.129E-03    -32.6736E-03    -32.8790E-03
            5308               1     98.0607E-03     103.267E-03    -28.8301E-03    -28.8165E-03
            5309               1     105.001E-03     109.363E-03    -41.8650E-03    -41.6338E-03
            5310               1     104.799E-03     107.306E-03    -37.1064E-03    -36.0093E-03
            5311               1     113.154E-03     112.511E-03    -50.9867E-03    -49.1947E-03
            5312               1     107.466E-03     111.305E-03    -43.3484E-03    -42.9478E-03
            5313               1     115.932E-03     116.087E-03    -58.4172E-03    -56.5314E-03
            5314               1     109.131E-03     111.014E-03    -46.4872E-03    -47.4498E-03
            5315               1     112.244E-03     110.442E-03    -58.5309E-03    -59.1902E-03
            5316               1     117.166E-03     114.996E-03    -52.1080E-03    -52.9261E-03
            5317               1     79.0856E-03     81.0284E-03    -27.5065E-03    -27.5501E-03
            5318               1     85.7076E-03     87.7225E-03    -27.5065E-03    -27.5501E-03
            5319               1     1.33939E-15     1.32457E-15     45.0280E-18    -45.0280E-18
            5320               1     4.11657E-15     3.81685E-15    -2.37486E-15    -2.20168E-15
            5321               1     2.64651E-15     2.77614E-15    -744.284E-18    -781.230E-18
            5322               1     1.69606E-15     1.64761E-15    -782.384E-18    -743.129E-18
            5323               1     1.02334E-15     1.62247E-15     589.572E-18     935.941E-18
            5324               1     1.76606E-15     1.57164E-15     828.567E-18     696.946E-18
            5325               1     1.39908E-15     1.99618E-15    -595.345E-18    -930.168E-18
            5326               1     1.35562E-15     1.69618E-15    -103.911E-18     103.911E-18
            5327               1     1.98795E-15     1.62391E-15    -929.014E-18    -596.500E-18
            5328               1     585.350E-18     488.889E-18     61.1919E-18    -61.1919E-18
            5329               1     2.02321E-15     2.01533E-15     85.4377E-18    -85.4377E-18
            5330               1     2.47974E-15     2.33510E-15     732.738E-18     792.775E-18
            5331               1     1.50356E-15     1.37374E-15     810.094E-18     715.420E-18
            5332               1     3.49176E-15     3.30890E-15     1.53590E-15     1.51512E-15
            5333               1     133.444E-03     134.114E-03    -17.8960E-03    -17.9397E-03
            5334               1     131.767E-03     145.722E-03    -28.4942E-03    -30.4704E-03
            5335               1     171.378E-03     143.803E-03    -26.6062E-03    -27.6519E-03
            5336               1     155.888E-03     166.342E-03    -28.6635E-03    -26.9322E-03
            5337               1     161.578E-03     181.763E-03    -26.2719E-03    -28.0269E-03
            5338               1     206.761E-03     159.566E-03    -29.1019E-03    -27.4441E-03
            5339               1     155.296E-03     190.965E-03    -26.1251E-03    -23.2852E-03
            5340               1     98.4758E-03     98.5505E-03    -24.0663E-03    -24.1100E-03
            5341               1     104.411E-03     113.870E-03    -35.4285E-03    -37.5526E-03
            5342               1     129.307E-03     110.821E-03    -35.4760E-03    -34.4672E-03
            5343               1     120.558E-03     124.654E-03    -36.5199E-03    -34.4778E-03
            5344               1     122.378E-03     136.119E-03    -34.6449E-03    -36.8372E-03
            5345               1     155.372E-03     124.250E-03    -37.0324E-03    -36.9086E-03
            5346               1     120.816E-03     143.465E-03    -35.2370E-03    -32.2836E-03
            5347               1     69.5157E-03     69.1677E-03    -28.7900E-03    -28.8337E-03
            5348               1     84.2093E-03     90.2546E-03    -40.3231E-03    -42.7839E-03
            5349               1     91.4442E-03     86.5546E-03    -38.2625E-03    -39.9603E-03
            5350               1     90.7638E-03     92.1006E-03    -41.5031E-03    -40.1246E-03
            5351               1     92.0136E-03     100.351E-03    -40.7464E-03    -42.7705E-03
            5352               1     111.124E-03     95.4519E-03    -45.4905E-03    -42.7608E-03
            5353               1     94.4586E-03     99.6959E-03    -42.3431E-03    -38.0108E-03
            5354               1     55.9261E-03     55.7992E-03    -31.7452E-03    -31.7889E-03
            5355               1     72.9181E-03     83.5119E-03    -41.4583E-03    -48.0474E-03
            5356               1     73.3957E-03     81.1587E-03    -41.6719E-03    -45.9403E-03
            5357               1     80.0009E-03     78.7033E-03    -44.8869E-03    -44.0915E-03
            5358               1     76.5452E-03     79.2818E-03    -42.9447E-03    -44.1484E-03
            5359               1     84.4833E-03     74.4598E-03    -47.6927E-03    -41.6854E-03
            5360               1     77.8311E-03     64.7036E-03    -44.1905E-03    -36.8444E-03
            5361               1     61.1114E-03     61.8257E-03    -32.7305E-03    -32.7742E-03
            5362               1     96.3494E-03     98.3593E-03    -54.5796E-03    -54.0144E-03
            5363               1     88.2244E-03     88.3366E-03    -48.9990E-03    -49.1881E-03
            5364               1     81.6330E-03     79.3346E-03    -45.2190E-03    -43.9012E-03
            5365               1     71.4242E-03     75.4263E-03    -39.2218E-03    -39.8778E-03
            5366               1     75.2773E-03     71.5271E-03    -37.3430E-03    -37.5376E-03
            5367               1     61.8474E-03     69.5397E-03    -32.0549E-03    -30.3494E-03
            5368               1     73.1873E-03     74.6280E-03    -31.6788E-03    -31.7225E-03
            5369               1     101.111E-03     95.4683E-03    -56.0742E-03    -51.8604E-03
            5370               1     95.6959E-03     87.3159E-03    -49.5782E-03    -44.2108E-03
            5371               1     82.9462E-03     81.9430E-03    -37.4651E-03    -37.6684E-03
            5372               1     81.2282E-03     85.7058E-03    -34.3846E-03    -33.2642E-03
            5373               1     83.5565E-03     77.4188E-03    -23.2944E-03    -27.8237E-03
            5374               1     72.1447E-03     89.6925E-03    -15.7982E-03    -21.2668E-03
            5431               1     2.05543E-15     2.06718E-15    -102.756E-18     102.756E-18
            5432               1     1.57629E-15     1.84425E-15     767.375E-18     758.138E-18
            5433               1     3.62349E-15     2.51390E-15    -503.762E-18    -258.995E-18
            5434               1     3.68229E-15     2.86431E-15     795.084E-18     730.429E-18
            5435               1     2.36026E-15     1.91830E-15     21.9367E-18    -21.9367E-18
            5436               1     1.63485E-15     1.41647E-15     805.475E-18     720.038E-18
            5437               1     3.32171E-15     3.67209E-15    -1.49896E-15    -1.55207E-15
            5438               1     1.86748E-15     2.14445E-15    -696.946E-18    -828.567E-18
            5439               1     1.00566E-15     1.12760E-15    -10.3911E-18     10.3911E-18
            5440               1     2.23388E-15     1.88513E-15    -15.0093E-18     15.0093E-18
            5441               1     2.96213E-15     2.46339E-15    -778.920E-18    -746.593E-18
            5442               1     1.83224E-15     1.22585E-15    -42.7188E-18     42.7188E-18
            5443               1     2.91842E-15     2.74911E-15    -1.53821E-15    -1.51281E-15
            5444               1     1.51556E-15     856.661E-18    -13.8548E-18     13.8548E-18
            5445               1     1.76904E-15     607.660E-18     20.7821E-18    -20.7821E-18
            5446               1     4.18585E-15     3.89445E-15     2.38641E-15     2.19013E-15
            5447               1     1.42089E-15     808.732E-18    -80.8194E-18     80.8194E-18
            5448               1     2.06976E-15     2.21294E-15     78.5103E-18    -78.5103E-18
            5449               1     2.24485E-15     2.81864E-15    -822.794E-18    -702.719E-18
            5450               1     2.84709E-15     2.81585E-15    -1.23304E-15    -1.05523E-15
            5451               1     2.25446E-15     1.11945E-15     1.12875E-15     396.760E-18
            5452               1     1.03791E-15     1.05158E-15    -131.620E-18     131.620E-18
            5453               1     1.07343E-15     1.61246E-15    -604.581E-18    -920.932E-18
            5454               1     1.65722E-15     1.66309E-15     760.447E-18     765.066E-18
            5455               1     1.84576E-15     1.56627E-15    -878.213E-18    -647.300E-18
            5456               1     1.46183E-15     993.316E-18    -196.276E-18     196.276E-18
            5457               1     1.10229E-15     1.61029E-15    -598.809E-18    -926.705E-18
            5458               1     1.93870E-15     1.47592E-15    -927.859E-18    -597.654E-18
            5459               1     277.512E-18     324.571E-18     40.4097E-18    -40.4097E-18
            5460               1     2.07907E-15     1.67885E-15     860.894E-18     664.619E-18
            5461               1     1.10643E-15     1.09051E-15     4.61825E-18    -4.61825E-18
            5462               1     2.96741E-15     2.35148E-15     1.70447E-15     1.34656E-15
            5463               1     1.86612E-15     1.87952E-15     724.656E-18     800.857E-18
            5464               1     3.24413E-15     3.32632E-15     784.693E-18     740.820E-18
            5465               1     3.72326E-15     3.40833E-15     758.138E-18     767.375E-18
            5466               1     1.88006E-15     1.46661E-15    -917.468E-18    -608.045E-18
            5467               1     3.09235E-15     2.57786E-15     1.70216E-15     1.34887E-15
            5468               1     2.84281E-15     3.27073E-15     1.36157E-15     1.68946E-15
            5469               1     167.980E-18     167.980E-18     96.9833E-18    -96.9833E-18
            5470               1     2.07458E-15     2.03099E-15    -234.376E-18     234.376E-18
            5471               1     1.62009E-15     1.71715E-15    -703.874E-18    -821.639E-18
            5472               1     247.511E-18     247.511E-18    -80.8194E-18     80.8194E-18
            5473               1     4.12062E-15     4.05782E-15     2.29866E-15     2.27788E-15
            5474               1     2.40572E-15     2.41714E-15    -688.865E-18    -836.649E-18
            5475               1     468.932E-18     317.807E-18     158.175E-18    -158.175E-18
            5476               1     2.28982E-15     2.54660E-15    -767.375E-18    -758.138E-18
            5477               1     1.73113E-15     1.18393E-15     976.351E-18     549.162E-18
            5478               1     1.97581E-15     1.58515E-15    -892.068E-18    -633.446E-18
            5479               1     96.0405E-18     96.0405E-18    -31.1732E-18     31.1732E-18
            5480               1     1.98848E-15     1.55348E-15     808.939E-18     716.574E-18
            5481               1     2.47363E-15     3.32832E-15     1.26458E-15     1.78644E-15
            5482               1     1.93583E-15     1.41001E-15     937.096E-18     588.418E-18
            5483               1     2.05893E-15     1.31519E-15    -1.01330E-15    -512.216E-18
            5484               1     1.59601E-15     1.81617E-15     765.066E-18     760.447E-18
            5485               1     4.21749E-15     3.70957E-15     2.43490E-15     2.14164E-15
            5486               1     2.36949E-15     2.50266E-15     564.172E-18     961.342E-18
            5487               1     2.62049E-15     3.56135E-15    -1.17453E-15    -1.87650E-15
            5488               1     1.12812E-15     944.485E-18     145.475E-18    -145.475E-18
            5489               1     2.42783E-15     2.89671E-15    -1.38119E-15    -1.66983E-15
            5490               1     1.54064E-15     1.13826E-15     880.522E-18     644.991E-18
            5491               1     1.84463E-15     1.69025E-15    -774.302E-18    -751.211E-18
            5492               1     2.65362E-15     2.40362E-15     937.096E-18     588.418E-18
            5493               1     2.13554E-15     1.65840E-15    -964.805E-18    -560.708E-18
            5494               1     1.58865E-15     1.84610E-15     715.420E-18     810.094E-18
            5495               1     3.06515E-15     2.71833E-15    -1.60171E-15    -1.44931E-15
            5496               1     1.35437E-15     1.13563E-15    -241.304E-18     241.304E-18
            5497               1     2.31329E-15     2.59385E-15    -638.064E-18    -887.449E-18
            5498               1     2.38186E-15     2.43526E-15    -692.328E-18    -833.185E-18
            5499               1     1.85863E-15     1.79212E-15    -804.321E-18    -721.192E-18
            5500               1     1.33064E-15     1.50651E-15    -731.583E-18    -793.930E-18
            5501               1     2.16779E-15     1.87524E-15    -28.8641E-18     28.8641E-18
            5502               1     1.20638E-15     1.24422E-15     168.566E-18    -168.566E-18
            5503               1     2.16316E-15     2.08252E-15    -43.8734E-18     43.8734E-18
            5504               1     4.12253E-15     3.94148E-15    -1.56015E-15    -1.49088E-15
            5505               1     2.71982E-15     2.60065E-15    -1.56015E-15    -1.49088E-15
            5506               1     1.80086E-15     2.07953E-15    -924.395E-18    -601.118E-18
            5507               1     1.12251E-15     967.486E-18    -69.2738E-18     69.2738E-18
            5508               1     1.64529E-15     1.03391E-15    -941.714E-18    -583.799E-18
            5509               1     1.58559E-15     1.07277E-15    -911.695E-18    -613.818E-18
            5510               1     1.14907E-15     881.526E-18    -17.3184E-18     17.3184E-18
            5511               1     2.41133E-15     2.49503E-15     665.773E-18     859.740E-18
            5512               1     2.18454E-15     2.26652E-15     83.1286E-18    -83.1286E-18
            5513               1     1.44191E-15     1.20716E-15     49.6462E-18    -49.6462E-18
            5514               1     2.74303E-15     2.95897E-15    -1.45739E-15    -1.59363E-15
            5515               1     1.53055E-15     1.90430E-15    -587.263E-18    -938.250E-18
            5516               1     2.55308E-15     2.75714E-15     1.46317E-15     1.58786E-15
            5517               1     1.87364E-15     1.47670E-15    -919.777E-18    -605.736E-18
            5518               1     1.58822E-15     1.97318E-15    -624.209E-18    -901.304E-18
            5519               1     1.21382E-15     1.17536E-15    -84.2831E-18     84.2831E-18
            5520               1     4.40818E-15     4.59241E-15     2.29289E-15     2.28365E-15
            5521               1     371.380E-18     371.380E-18    -180.112E-18     180.112E-18
            5522               1     1.00397E-15     1.02872E-15    -62.3464E-18     62.3464E-18
            5523               1     1.76736E-15     1.62988E-15     821.639E-18     703.874E-18
            5524               1     1.87077E-15     1.70058E-15    -754.675E-18    -770.839E-18
            5525               1     2.47096E-15     2.85837E-15     575.717E-18     949.796E-18
            5526               1     1.69236E-15     1.62722E-15    -777.766E-18    -747.747E-18
            5527               1     624.924E-18     560.839E-18     181.266E-18    -181.266E-18
            5528               1     1.40631E-15     1.29326E-15     42.7188E-18    -42.7188E-18
            5529               1     2.84550E-15     2.85614E-15    -1.49203E-15    -1.55900E-15
            5530               1     2.55974E-15     2.86717E-15    -646.146E-18    -879.367E-18
            5531               1     1.20228E-15     1.64668E-15     606.891E-18     918.623E-18
            5532               1     3.89039E-15     4.05937E-15    -2.24324E-15    -2.33330E-15
            5533               1     1.64410E-15     1.68504E-15    -797.393E-18    -728.120E-18
            5534               1     2.60422E-15     2.32426E-15    -929.014E-18    -596.500E-18
            5535               1     1.20816E-15     943.612E-18    -68.1192E-18     68.1192E-18
            5536               1     2.72530E-15     3.19059E-15    -1.38235E-15    -1.66868E-15
            5537               1     3.40280E-15     3.13559E-15    -1.57054E-15    -1.48049E-15
            5538               1     928.177E-18     1.10944E-15    -39.2551E-18     39.2551E-18
            5539               1     3.04550E-15     2.86376E-15    -1.58555E-15    -1.46548E-15
            5540               1     1.14518E-15     1.23732E-15     81.9740E-18    -81.9740E-18
            5541               1     1.25489E-15     909.683E-18     120.075E-18    -120.075E-18
            5542               1     4.38898E-15     4.27346E-15     648.455E-18     877.058E-18
            5543               1     264.164E-18     264.164E-18     69.2738E-18    -69.2738E-18
            5544               1     1.03060E-15     1.06750E-15     137.393E-18    -137.393E-18
            5545               1     1.29054E-15     1.46122E-15     713.110E-18     812.403E-18
            5546               1     1.69194E-15     1.70851E-15    -736.202E-18    -789.312E-18
            5547               1     2.48785E-15     2.41777E-15    -848.194E-18    -677.319E-18
            5548               1     1.56859E-15     1.26343E-15     849.349E-18     676.164E-18
            5549               1     1.69635E-15     1.64514E-15    -817.021E-18    -708.492E-18
            5550               1     1.85979E-15     2.12841E-15     63.5010E-18    -63.5010E-18
            5551               1     2.07287E-15     2.06397E-15    -109.684E-18     109.684E-18
            5552               1     2.51620E-15     2.30227E-15     885.140E-18     640.373E-18
            5553               1     832.141E-18     1.22697E-15    -35.7915E-18     35.7915E-18
            5554               1     373.599E-18     373.599E-18     36.9460E-18    -36.9460E-18
            5555               1     2.56400E-15     2.25209E-15     721.192E-18     804.321E-18
            5556               1     2.51971E-15     2.65191E-15    -715.420E-18    -810.094E-18
            5557               1     1.56096E-15     1.30875E-15     880.522E-18     644.991E-18
            5558               1     2.06261E-15     1.95521E-15    -76.2012E-18     76.2012E-18
            5559               1     4.87264E-15     4.59153E-15     68.1192E-18    -68.1192E-18
            5560               1     3.51099E-15     3.13093E-15    -1.57978E-15    -1.47125E-15
            5561               1     2.87897E-15     2.81569E-15    -703.874E-18    -821.639E-18
            5562               1     2.27840E-15     2.74544E-15    -690.019E-18    -835.494E-18
            5563               1     1.38539E-15     1.38539E-15    -762.757E-18    -762.757E-18
            5564               1     317.974E-03     322.837E-03     51.1307E-03     48.9059E-03
            5565               1     221.881E-03     221.822E-03     60.4980E-03     58.4551E-03
            5566               1     182.841E-03     181.400E-03     43.8909E-03     43.9638E-03
            5567               1     155.061E-03     152.867E-03     44.3862E-03     43.7116E-03
            5568               1     131.257E-03     128.648E-03     37.9403E-03     37.9948E-03
            5569               1     112.086E-03     109.364E-03     37.1344E-03     36.8988E-03
            5570               1     93.4882E-03     90.8444E-03     33.7471E-03     33.7898E-03
            5571               1     78.2502E-03     75.8354E-03     32.8851E-03     32.8019E-03
            5572               1     64.2721E-03     62.4862E-03     31.0132E-03     31.0669E-03
            5573               1     55.6549E-03     54.6532E-03     30.6597E-03     30.6233E-03
            5574               1     51.8057E-03     52.1675E-03     29.8929E-03     29.9730E-03
            5575               1     56.2671E-03     57.5324E-03     30.3296E-03     30.2998E-03
            5576               1     65.5038E-03     67.5943E-03     30.5256E-03     30.6666E-03
            5577               1     79.4536E-03     81.7391E-03     31.9624E-03     31.9015E-03
            5578               1     94.9682E-03     97.3806E-03     32.9971E-03     33.2720E-03
            5579               1     112.711E-03     115.062E-03     35.7955E-03     35.5700E-03
            5580               1     131.221E-03     133.393E-03     37.3945E-03     37.9508E-03
            5581               1     151.849E-03     154.099E-03     42.6002E-03     41.6989E-03
            5582               1     174.379E-03     176.778E-03     44.0049E-03     45.0204E-03
            5583               1     266.449E-03     257.649E-03     12.8029E-03     12.6347E-03
            5584               1     248.705E-03     244.618E-03     52.2533E-03     50.4732E-03
            5585               1     189.625E-03     187.104E-03     51.2660E-03     49.5804E-03
            5586               1     166.929E-03     164.198E-03     46.7329E-03     46.4408E-03
            5587               1     140.354E-03     137.708E-03     45.4681E-03     44.7164E-03
            5588               1     121.092E-03     118.666E-03     41.7069E-03     41.6822E-03
            5589               1     102.682E-03     100.259E-03     40.4524E-03     40.1551E-03
            5590               1     86.7735E-03     84.9178E-03     38.0556E-03     38.1357E-03
            5591               1     74.1863E-03     72.5599E-03     37.3052E-03     37.1828E-03
            5592               1     64.8305E-03     64.3227E-03     36.0134E-03     36.1636E-03
            5593               1     62.4048E-03     62.4437E-03     36.0133E-03     35.9401E-03
            5594               1     65.1806E-03     66.5908E-03     35.6671E-03     35.9193E-03
            5595               1     74.8517E-03     76.3975E-03     36.5691E-03     36.4805E-03
            5596               1     87.3958E-03     89.8423E-03     37.0597E-03     37.5053E-03
            5597               1     103.417E-03     105.541E-03     39.0808E-03     38.8601E-03
            5598               1     120.809E-03     123.495E-03     40.2637E-03     41.0285E-03
            5599               1     139.727E-03     142.013E-03     43.8321E-03     43.0747E-03
            5600               1     161.741E-03     164.074E-03     45.4721E-03     46.5152E-03
            5601               1     183.066E-03     185.362E-03     51.0353E-03     48.7175E-03
            5602               1     229.942E-03     229.052E-03     13.1402E-03     12.4717E-03
            5603               1     219.376E-03     214.771E-03     28.6504E-03     28.5981E-03
            5604               1     203.997E-03     199.590E-03     48.4849E-03     47.4287E-03
            5605               1     167.467E-03     164.705E-03     47.7621E-03     46.7625E-03
            5606               1     150.331E-03     147.496E-03     47.6433E-03     47.3706E-03
            5607               1     127.149E-03     124.708E-03     46.0441E-03     45.5231E-03
            5608               1     110.680E-03     108.711E-03     44.1604E-03     44.1755E-03
            5609               1     94.3336E-03     92.4439E-03     42.9644E-03     42.7308E-03
            5610               1     81.6719E-03     80.6567E-03     41.5018E-03     41.6430E-03
            5611               1     73.3855E-03     72.5644E-03     41.0384E-03     40.9127E-03
            5612               1     69.8636E-03     70.3873E-03     40.3197E-03     40.5616E-03
            5613               1     73.5892E-03     74.2607E-03     40.6543E-03     40.5438E-03
            5614               1     81.6721E-03     83.6058E-03     40.6895E-03     41.0895E-03
            5615               1     94.7550E-03     96.4534E-03     41.8729E-03     41.7076E-03
            5616               1     110.114E-03     112.633E-03     42.6216E-03     43.2521E-03
            5617               1     127.315E-03     129.650E-03     44.6631E-03     44.3007E-03
            5618               1     147.568E-03     149.737E-03     46.0471E-03     46.7930E-03
            5619               1     166.230E-03     169.187E-03     48.2506E-03     47.4929E-03
            5620               1     193.824E-03     193.600E-03     50.3094E-03     49.8951E-03
            5621               1     215.223E-03     210.014E-03     10.7755E-03     10.1239E-03
            5622               1     204.267E-03     201.068E-03     29.0503E-03     28.2361E-03
            5623               1     187.941E-03     184.720E-03     36.8620E-03     36.6870E-03
            5624               1     175.397E-03     171.649E-03     47.7173E-03     47.0938E-03
            5625               1     149.528E-03     147.117E-03     47.0287E-03     46.5542E-03
            5626               1     134.447E-03     132.138E-03     48.0949E-03     47.9743E-03
            5627               1     114.708E-03     112.768E-03     46.7252E-03     46.4391E-03
            5628               1     100.594E-03     99.2815E-03     45.9553E-03     46.0512E-03
            5629               1     87.6730E-03     86.4072E-03     45.1503E-03     44.9781E-03
            5630               1     79.4195E-03     79.2145E-03     44.4187E-03     44.6112E-03
            5631               1     76.7458E-03     76.5915E-03     44.2888E-03     44.1481E-03
            5632               1     79.2847E-03     80.4438E-03     44.0220E-03     44.3192E-03
            5633               1     87.9185E-03     88.9485E-03     44.5188E-03     44.3588E-03
            5634               1     100.005E-03     102.045E-03     44.8052E-03     45.2440E-03
            5635               1     115.040E-03     117.007E-03     45.7641E-03     45.5775E-03
            5636               1     132.897E-03     134.976E-03     46.6266E-03     47.1072E-03
            5637               1     150.075E-03     153.060E-03     47.2634E-03     47.2020E-03
            5638               1     172.536E-03     173.287E-03     48.4751E-03     48.3415E-03
            5639               1     189.858E-03     193.004E-03     45.1104E-03     46.3467E-03
            5640               1     196.798E-03     193.985E-03     12.4517E-03     12.0739E-03
            5641               1     191.269E-03     187.562E-03     24.4917E-03     24.2097E-03
            5642               1     182.825E-03     179.200E-03     38.0124E-03     37.4377E-03
            5643               1     166.314E-03     163.839E-03     41.3854E-03     41.3734E-03
            5644               1     154.030E-03     151.305E-03     47.8736E-03     47.6417E-03
            5645               1     133.430E-03     131.580E-03     47.2140E-03     47.0639E-03
            5646               1     119.423E-03     117.923E-03     48.4910E-03     48.5558E-03
            5647               1     103.384E-03     102.010E-03     47.7393E-03     47.5766E-03
            5648               1     92.4013E-03     91.7716E-03     47.6372E-03     47.7898E-03
            5649               1     84.3042E-03     83.6060E-03     47.2971E-03     47.1369E-03
            5650               1     81.5377E-03     81.9479E-03     47.0525E-03     47.2591E-03
            5651               1     84.5512E-03     84.8337E-03     47.1063E-03     46.9230E-03
            5652               1     92.1697E-03     93.5449E-03     47.0625E-03     47.3396E-03
            5653               1     103.985E-03     105.254E-03     47.3293E-03     47.1344E-03
            5654               1     118.775E-03     120.573E-03     47.5819E-03     47.8787E-03
            5655               1     134.510E-03     136.854E-03     47.4573E-03     47.4581E-03
            5656               1     153.522E-03     154.941E-03     47.9469E-03     47.9226E-03
            5657               1     169.828E-03     173.171E-03     45.5399E-03     46.4705E-03
            5658               1     188.410E-03     189.752E-03     44.5779E-03     43.7942E-03
            5659               1     183.967E-03     180.293E-03     13.5083E-03     12.7127E-03
            5660               1     180.530E-03     176.758E-03     26.8564E-03     26.4921E-03
            5661               1     173.185E-03     170.585E-03     33.3115E-03     33.5284E-03
            5662               1     164.242E-03     161.421E-03     42.5494E-03     42.3522E-03
            5663               1     148.182E-03     146.462E-03     43.7241E-03     43.9651E-03
            5664               1     135.116E-03     133.612E-03     48.0290E-03     48.1449E-03
            5665               1     118.438E-03     117.201E-03     48.0642E-03     48.0287E-03
            5666               1     106.449E-03     105.677E-03     49.4020E-03     49.5573E-03
            5667               1     94.8697E-03     93.9912E-03     49.3035E-03     49.1670E-03
            5668               1     88.3242E-03     88.2383E-03     49.5853E-03     49.7389E-03
            5669               1     85.8411E-03     85.5552E-03     49.5310E-03     49.3398E-03
            5670               1     88.5126E-03     89.2127E-03     49.4768E-03     49.6423E-03
            5671               1     95.8906E-03     96.3927E-03     49.3784E-03     49.1403E-03
            5672               1     106.855E-03     108.115E-03     49.2007E-03     49.3588E-03
            5673               1     120.231E-03     121.631E-03     48.6782E-03     48.5113E-03
            5674               1     136.011E-03     137.487E-03     48.3853E-03     48.3894E-03
            5675               1     151.604E-03     154.053E-03     46.3828E-03     46.8042E-03
            5676               1     168.779E-03     170.320E-03     45.6057E-03     45.1341E-03
            5677               1     183.512E-03     186.235E-03     40.9235E-03     42.2833E-03
            5678               1     171.520E-03     166.911E-03     15.5283E-03     15.8530E-03
            5679               1     170.245E-03     167.943E-03     25.1603E-03     25.2221E-03
            5680               1     167.000E-03     163.809E-03     35.3112E-03     35.2275E-03
            5681               1     156.855E-03     155.240E-03     37.6134E-03     38.3353E-03
            5682               1     144.630E-03     143.543E-03     44.0761E-03     44.4306E-03
            5683               1     130.631E-03     129.690E-03     45.7895E-03     45.9953E-03
            5684               1     118.772E-03     118.143E-03     49.0960E-03     49.3323E-03
            5685               1     106.235E-03     105.467E-03     49.9014E-03     49.8474E-03
            5686               1     97.8417E-03     97.5752E-03     51.2755E-03     51.4241E-03
            5687               1     91.4898E-03     90.9642E-03     51.5677E-03     51.4035E-03
            5688               1     90.0226E-03     90.2420E-03     51.9475E-03     52.0572E-03
            5689               1     92.5298E-03     92.4533E-03     51.8335E-03     51.5906E-03
            5690               1     99.1652E-03     99.8429E-03     51.5894E-03     51.6651E-03
            5691               1     108.995E-03     109.498E-03     50.9089E-03     50.6184E-03
            5692               1     121.262E-03     122.262E-03     50.0870E-03     50.0741E-03
            5693               1     134.972E-03     136.185E-03     48.3071E-03     48.1806E-03
            5694               1     149.530E-03     151.040E-03     46.7313E-03     46.5338E-03
            5695               1     164.538E-03     166.436E-03     42.9432E-03     43.5707E-03
            5696               1     178.709E-03     180.386E-03     40.7385E-03     40.2714E-03
            5697               1     156.070E-03     155.194E-03     16.3381E-03     15.5415E-03
            5698               1     163.935E-03     158.981E-03     27.9261E-03     27.9431E-03
            5699               1     158.897E-03     157.707E-03     29.5049E-03     30.9856E-03
            5700               1     147.047E-03     146.895E-03     37.2919E-03     38.1340E-03
            5701               1     137.790E-03     137.339E-03     41.3341E-03     41.8024E-03
            5702               1     126.824E-03     126.667E-03     46.4470E-03     46.8539E-03
            5703               1     116.011E-03     115.546E-03     48.9258E-03     48.9915E-03
            5704               1     107.497E-03     107.309E-03     51.8071E-03     51.9894E-03
            5705               1     99.7039E-03     99.2293E-03     52.9964E-03     52.8932E-03
            5706               1     95.8956E-03     95.9000E-03     54.2798E-03     54.3734E-03
            5707               1     94.5352E-03     94.2147E-03     54.5488E-03     54.3521E-03
            5708               1     97.2524E-03     97.5198E-03     54.6863E-03     54.7296E-03
            5709               1     102.900E-03     102.829E-03     54.1041E-03     53.8193E-03
            5710               1     111.348E-03     111.792E-03     53.2182E-03     53.1889E-03
            5711               1     121.865E-03     122.080E-03     51.5728E-03     51.2262E-03
            5712               1     133.398E-03     134.131E-03     49.4936E-03     49.3694E-03
            5713               1     146.491E-03     147.011E-03     46.3380E-03     46.0966E-03
            5714               1     158.158E-03     159.852E-03     42.7971E-03     42.7072E-03
            5715               1     172.182E-03     173.449E-03     37.3768E-03     38.1312E-03
            5716               1     152.593E-03     142.350E-03     18.6842E-03     19.8704E-03
            5717               1     153.698E-03     154.588E-03     18.0008E-03     20.9181E-03
            5718               1     140.891E-03     142.645E-03     27.2901E-03     28.9556E-03
            5719               1     137.760E-03     138.266E-03     35.0481E-03     35.6619E-03
            5720               1     129.016E-03     129.643E-03     41.7245E-03     42.3313E-03
            5721               1     122.025E-03     121.981E-03     46.6209E-03     46.7613E-03
            5722               1     115.002E-03     115.064E-03     51.1444E-03     51.3646E-03
            5723               1     108.211E-03     107.942E-03     53.7867E-03     53.7514E-03
            5724               1     104.074E-03     104.057E-03     56.3449E-03     56.4341E-03
            5725               1     100.863E-03     100.580E-03     57.4098E-03     57.2892E-03
            5726               1     101.116E-03     101.197E-03     58.3543E-03     58.3923E-03
            5727               1     103.141E-03     102.905E-03     58.1720E-03     57.9805E-03
            5728               1     108.082E-03     108.208E-03     57.6983E-03     57.6862E-03
            5729               1     114.785E-03     114.527E-03     56.2843E-03     56.0000E-03
            5730               1     123.004E-03     123.085E-03     54.2963E-03     54.2158E-03
            5731               1     132.726E-03     132.298E-03     51.4590E-03     51.0391E-03
            5732               1     141.890E-03     142.191E-03     47.5161E-03     47.4670E-03
            5733               1     153.280E-03     152.651E-03     43.0105E-03     42.4710E-03
            5734               1     160.714E-03     162.205E-03     36.4566E-03     36.9189E-03
            5735               1     133.384E-03     147.077E-03     361.240E-06     5.31553E-03
            5736               1     123.422E-03     129.417E-03     12.1646E-03     14.0890E-03
            5737               1     127.743E-03     130.071E-03     26.9384E-03     27.3163E-03
            5738               1     124.450E-03     126.006E-03     35.4157E-03     35.9197E-03
            5739               1     122.686E-03     123.080E-03     43.4298E-03     43.5129E-03
            5740               1     119.182E-03     119.498E-03     49.7072E-03     49.8606E-03
            5741               1     115.261E-03     115.209E-03     54.1933E-03     54.1973E-03
            5742               1     112.660E-03     112.685E-03     58.2528E-03     58.3042E-03
            5743               1     109.633E-03     109.524E-03     60.4262E-03     60.3917E-03
            5744               1     109.257E-03     109.272E-03     62.4976E-03     62.5177E-03
            5745               1     109.143E-03     109.040E-03     62.9800E-03     62.9198E-03
            5746               1     111.767E-03     111.782E-03     63.3130E-03     63.3148E-03
            5747               1     115.098E-03     114.893E-03     62.3268E-03     62.2342E-03
            5748               1     120.350E-03     120.235E-03     60.9477E-03     60.9245E-03
            5749               1     126.371E-03     125.810E-03     58.4284E-03     58.2743E-03
            5750               1     132.857E-03     132.423E-03     55.0174E-03     54.9899E-03
            5751               1     140.346E-03     138.993E-03     50.7739E-03     50.4711E-03
            5752               1     146.070E-03     145.287E-03     44.5210E-03     44.6722E-03
            5753               1     154.004E-03     151.629E-03     38.4131E-03     37.8594E-03
            5754               1     243.758E-03     245.953E-03     42.6692E-03     41.6408E-03
            5755               1     169.205E-03     168.412E-03     52.4424E-03     51.0608E-03
            5756               1     138.453E-03     137.067E-03     41.0655E-03     41.1892E-03
            5757               1     119.967E-03     118.069E-03     42.8911E-03     42.4129E-03
            5758               1     103.444E-03     101.526E-03     38.8552E-03     38.9145E-03
            5759               1     92.5074E-03     90.5615E-03     39.2298E-03     39.0591E-03
            5760               1     81.2919E-03     79.6117E-03     37.1548E-03     37.1910E-03
            5761               1     73.8549E-03     72.4086E-03     37.1131E-03     37.0522E-03
            5762               1     66.6681E-03     65.7417E-03     35.9154E-03     35.9543E-03
            5763               1     63.3322E-03     62.8312E-03     35.9660E-03     35.9391E-03
            5764               1     61.3337E-03     61.5358E-03     35.4075E-03     35.4641E-03
            5765               1     63.4421E-03     64.0512E-03     35.8268E-03     35.8023E-03
            5766               1     67.1146E-03     68.3247E-03     35.8258E-03     35.9278E-03
            5767               1     74.1265E-03     75.4780E-03     36.7933E-03     36.7387E-03
            5768               1     81.9707E-03     83.6863E-03     37.2356E-03     37.4391E-03
            5769               1     92.3753E-03     93.9591E-03     38.9992E-03     38.8066E-03
            5770               1     103.058E-03     104.909E-03     39.6244E-03     40.0375E-03
            5771               1     116.674E-03     118.247E-03     42.9203E-03     42.1945E-03
            5772               1     130.907E-03     133.179E-03     43.0729E-03     43.8269E-03
            5773               1     197.863E-03     192.410E-03     13.7831E-03     13.8406E-03
            5774               1     186.358E-03     183.222E-03     46.5445E-03     45.5473E-03
            5775               1     143.312E-03     141.177E-03     47.2700E-03     46.1429E-03
            5776               1     127.479E-03     125.441E-03     44.7854E-03     44.6443E-03
            5777               1     110.863E-03     108.843E-03     44.8441E-03     44.3189E-03
            5778               1     98.7831E-03     97.1598E-03     42.5259E-03     42.5287E-03
            5779               1     88.8253E-03     87.2263E-03     42.2344E-03     42.0233E-03
            5780               1     80.0017E-03     78.9462E-03     40.6775E-03     40.7383E-03
            5781               1     74.2276E-03     73.3165E-03     40.4785E-03     40.3913E-03
            5782               1     69.5843E-03     69.3849E-03     39.5795E-03     39.6845E-03
            5783               1     68.8346E-03     68.8232E-03     39.7369E-03     39.6821E-03
            5784               1     69.6245E-03     70.4341E-03     39.4179E-03     39.5962E-03
            5785               1     74.2810E-03     75.0782E-03     40.0907E-03     40.0148E-03
            5786               1     80.0662E-03     81.6739E-03     40.2638E-03     40.5877E-03
            5787               1     88.8528E-03     90.0919E-03     41.6168E-03     41.4193E-03
            5788               1     98.2793E-03     100.316E-03     42.1296E-03     42.6969E-03
            5789               1     109.956E-03     111.275E-03     44.4461E-03     43.8068E-03
            5790               1     123.283E-03     125.235E-03     45.0618E-03     45.8412E-03
            5791               1     137.721E-03     138.804E-03     48.6055E-03     46.7511E-03
            5792               1     166.792E-03     166.084E-03     13.6731E-03     12.9834E-03
            5793               1     159.806E-03     156.876E-03     28.5297E-03     28.4889E-03
            5794               1     151.787E-03     148.658E-03     45.3215E-03     44.6882E-03
            5795               1     127.420E-03     125.351E-03     46.0171E-03     45.3244E-03
            5796               1     117.343E-03     115.425E-03     46.5918E-03     46.4426E-03
            5797               1     103.776E-03     102.091E-03     46.1112E-03     45.7449E-03
            5798               1     94.4852E-03     93.3003E-03     44.9546E-03     44.9782E-03
            5799               1     86.0567E-03     84.9154E-03     44.4382E-03     44.2739E-03
            5800               1     79.5217E-03     79.0302E-03     43.4176E-03     43.5180E-03
            5801               1     75.8712E-03     75.4170E-03     43.2453E-03     43.1561E-03
            5802               1     73.9518E-03     74.2969E-03     42.6913E-03     42.8600E-03
            5803               1     75.7967E-03     76.0877E-03     42.9930E-03     42.9081E-03
            5804               1     79.2066E-03     80.3857E-03     42.9253E-03     43.2112E-03
            5805               1     85.9007E-03     86.7921E-03     43.7638E-03     43.6211E-03
            5806               1     93.7256E-03     95.4608E-03     44.1134E-03     44.5811E-03
            5807               1     103.559E-03     104.873E-03     45.4682E-03     45.1455E-03
            5808               1     115.212E-03     116.858E-03     46.0956E-03     46.6770E-03
            5809               1     126.624E-03     128.314E-03     47.3417E-03     46.6952E-03
            5810               1     144.257E-03     144.010E-03     48.1540E-03     47.9344E-03
            5811               1     151.772E-03     148.209E-03     11.5677E-03     11.0788E-03
            5812               1     146.093E-03     143.769E-03     28.4019E-03     27.7338E-03
            5813               1     136.969E-03     134.888E-03     36.6035E-03     36.4437E-03
            5814               1     131.984E-03     129.442E-03     46.0333E-03     45.6341E-03
            5815               1     116.460E-03     114.848E-03     46.5366E-03     46.2003E-03
            5816               1     108.742E-03     107.312E-03     47.7107E-03     47.6445E-03
            5817               1     97.8361E-03     96.6402E-03     47.1203E-03     46.9213E-03
            5818               1     90.5439E-03     89.8548E-03     46.6130E-03     46.6839E-03
            5819               1     84.1540E-03     83.4489E-03     46.1712E-03     46.0524E-03
            5820               1     80.0835E-03     80.0516E-03     45.6102E-03     45.7432E-03
            5821               1     78.9351E-03     78.8094E-03     45.5653E-03     45.4663E-03
            5822               1     79.8089E-03     80.4872E-03     45.3239E-03     45.5311E-03
            5823               1     83.9669E-03     84.4387E-03     45.6972E-03     45.5765E-03
            5824               1     89.7425E-03     91.0070E-03     45.8225E-03     46.1397E-03
            5825               1     97.7115E-03     98.7826E-03     46.4846E-03     46.3269E-03
            5826               1     107.444E-03     108.838E-03     46.9067E-03     47.2861E-03
            5827               1     117.096E-03     118.928E-03     47.1747E-03     47.0906E-03
            5828               1     130.446E-03     130.880E-03     47.5531E-03     47.5464E-03
            5829               1     139.859E-03     142.190E-03     44.3818E-03     45.3341E-03
            5830               1     134.391E-03     132.579E-03     12.6278E-03     12.1804E-03
            5831               1     133.499E-03     131.013E-03     24.8858E-03     24.5901E-03
            5832               1     131.778E-03     129.279E-03     37.2290E-03     36.7862E-03
            5833               1     123.721E-03     122.231E-03     41.5794E-03     41.5365E-03
            5834               1     119.327E-03     117.614E-03     47.1821E-03     47.0290E-03
            5835               1     107.902E-03     106.830E-03     47.3499E-03     47.2441E-03
            5836               1     101.241E-03     100.432E-03     48.4199E-03     48.4680E-03
            5837               1     92.7966E-03     92.0436E-03     48.0164E-03     47.9067E-03
            5838               1     87.5161E-03     87.2601E-03     47.9149E-03     48.0193E-03
            5839               1     83.6222E-03     83.2392E-03     47.6785E-03     47.5706E-03
            5840               1     82.2294E-03     82.4959E-03     47.4656E-03     47.6058E-03
            5841               1     83.5937E-03     83.6617E-03     47.5013E-03     47.3762E-03
            5842               1     87.0247E-03     87.7929E-03     47.4485E-03     47.6398E-03
            5843               1     92.8497E-03     93.4641E-03     47.6412E-03     47.5051E-03
            5844               1     100.460E-03     101.510E-03     47.7646E-03     47.9841E-03
            5845               1     108.738E-03     110.149E-03     47.6119E-03     47.6133E-03
            5846               1     119.364E-03     120.165E-03     47.6862E-03     47.7362E-03
            5847               1     127.749E-03     130.130E-03     45.5509E-03     46.2478E-03
            5848               1     137.937E-03     138.702E-03     43.9689E-03     43.5423E-03
            5849               1     121.672E-03     118.999E-03     13.3322E-03     12.6063E-03
            5850               1     123.126E-03     120.583E-03     26.4623E-03     26.1117E-03
            5851               1     122.790E-03     121.261E-03     34.0950E-03     34.1799E-03
            5852               1     121.861E-03     120.067E-03     42.3554E-03     42.1891E-03
            5853               1     114.283E-03     113.454E-03     44.4157E-03     44.5779E-03
            5854               1     109.291E-03     108.498E-03     47.8932E-03     47.9648E-03
            5855               1     100.466E-03     99.8667E-03     48.1353E-03     48.1165E-03
            5856               1     95.0786E-03     94.7618E-03     49.1249E-03     49.2272E-03
            5857               1     89.2594E-03     88.8212E-03     49.0258E-03     48.9375E-03
            5858               1     86.3441E-03     86.3682E-03     49.2039E-03     49.3053E-03
            5859               1     85.0991E-03     84.9023E-03     49.1179E-03     48.9930E-03
            5860               1     86.2841E-03     86.6451E-03     49.0817E-03     49.1891E-03
            5861               1     89.6649E-03     89.8232E-03     48.9925E-03     48.8402E-03
            5862               1     94.9975E-03     95.6162E-03     48.8888E-03     48.9881E-03
            5863               1     101.608E-03     102.348E-03     48.4955E-03     48.4058E-03
            5864               1     109.976E-03     110.672E-03     48.2306E-03     48.2342E-03
            5865               1     117.719E-03     119.401E-03     46.6435E-03     46.9906E-03
            5866               1     126.820E-03     127.598E-03     45.5947E-03     45.3568E-03
            5867               1     133.462E-03     135.487E-03     41.5326E-03     42.5351E-03
            5868               1     108.475E-03     105.522E-03     14.7362E-03     14.8981E-03
            5869               1     113.351E-03     111.896E-03     25.8086E-03     25.7245E-03
            5870               1     117.496E-03     115.481E-03     35.5696E-03     35.4707E-03
            5871               1     115.381E-03     114.801E-03     39.2974E-03     39.7951E-03
            5872               1     112.262E-03     111.793E-03     44.5682E-03     44.7845E-03
            5873               1     105.596E-03     105.302E-03     46.1738E-03     46.3252E-03
            5874               1     101.017E-03     100.831E-03     48.7008E-03     48.8501E-03
            5875               1     94.7420E-03     94.4362E-03     49.2437E-03     49.2147E-03
            5876               1     91.3210E-03     91.2882E-03     50.2547E-03     50.3498E-03
            5877               1     88.2534E-03     87.9846E-03     50.3762E-03     50.2714E-03
            5878               1     87.7886E-03     87.9157E-03     50.6711E-03     50.7390E-03
            5879               1     88.8065E-03     88.6705E-03     50.5315E-03     50.3787E-03
            5880               1     91.9410E-03     92.2013E-03     50.4109E-03     50.4474E-03
            5881               1     96.4694E-03     96.6095E-03     49.8916E-03     49.7227E-03
            5882               1     102.605E-03     102.938E-03     49.3665E-03     49.3246E-03
            5883               1     109.154E-03     109.838E-03     48.0270E-03     48.0017E-03
            5884               1     116.630E-03     117.193E-03     46.8200E-03     46.6451E-03
            5885               1     123.365E-03     124.812E-03     43.8652E-03     44.3659E-03
            5886               1     129.697E-03     130.679E-03     41.4672E-03     41.2839E-03
            5887               1     93.8580E-03     93.0819E-03     15.8051E-03     15.0299E-03
            5888               1     106.633E-03     103.483E-03     28.0468E-03     28.0522E-03
            5889               1     110.129E-03     110.103E-03     32.6682E-03     33.7261E-03
            5890               1     109.335E-03     109.605E-03     39.0370E-03     39.5721E-03
            5891               1     106.585E-03     106.743E-03     42.3856E-03     42.7304E-03
            5892               1     103.512E-03     103.687E-03     46.3798E-03     46.6321E-03
            5893               1     98.6564E-03     98.6245E-03     48.1315E-03     48.1888E-03
            5894               1     95.7964E-03     95.8652E-03     50.3333E-03     50.4463E-03
            5895               1     92.2175E-03     92.0493E-03     51.0806E-03     51.0182E-03
            5896               1     91.0867E-03     91.1511E-03     52.0729E-03     52.1299E-03
            5897               1     90.4038E-03     90.1927E-03     52.1773E-03     52.0537E-03
            5898               1     91.8708E-03     91.9401E-03     52.3476E-03     52.3653E-03
            5899               1     94.2640E-03     94.0801E-03     51.8683E-03     51.6977E-03
            5900               1     98.2798E-03     98.2968E-03     51.3274E-03     51.2754E-03
            5901               1     102.965E-03     102.913E-03     50.0810E-03     49.8972E-03
            5902               1     108.543E-03     108.565E-03     48.6885E-03     48.5246E-03
            5903               1     114.292E-03     114.527E-03     46.2895E-03     46.2127E-03
            5904               1     119.532E-03     120.070E-03     43.7060E-03     43.5048E-03
            5905               1     124.617E-03     125.730E-03     39.5322E-03     40.0919E-03
            5906               1     85.6896E-03     79.2168E-03     17.7040E-03     18.6645E-03
            5907               1     96.1352E-03     98.0304E-03     23.7095E-03     25.8439E-03
            5908               1     98.9949E-03     100.784E-03     31.2861E-03     32.3931E-03
            5909               1     101.616E-03     102.500E-03     36.9956E-03     37.4584E-03
            5910               1     101.264E-03     102.026E-03     42.3484E-03     42.7288E-03
            5911               1     99.5452E-03     99.8595E-03     45.8019E-03     45.9148E-03
            5912               1     98.3764E-03     98.6594E-03     49.3624E-03     49.4963E-03
            5913               1     95.8482E-03     95.8793E-03     51.1649E-03     51.1488E-03
            5914               1     95.1926E-03     95.3099E-03     53.1716E-03     53.2255E-03
            5915               1     93.9263E-03     93.8093E-03     53.8437E-03     53.7683E-03
            5916               1     94.6481E-03     94.6801E-03     54.6308E-03     54.6502E-03
            5917               1     95.4321E-03     95.2070E-03     54.4212E-03     54.3036E-03
            5918               1     97.8279E-03     97.7328E-03     54.1768E-03     54.1519E-03
            5919               1     100.510E-03     100.169E-03     53.0802E-03     52.9176E-03
            5920               1     104.171E-03     103.878E-03     51.7604E-03     51.6565E-03
            5921               1     108.042E-03     107.538E-03     49.5931E-03     49.3706E-03
            5922               1     111.788E-03     111.426E-03     46.9021E-03     46.7350E-03
            5923               1     115.852E-03     115.203E-03     43.4208E-03     43.1450E-03
            5924               1     117.661E-03     117.902E-03     38.8864E-03     38.8853E-03
            5925               1     62.2405E-03     73.6994E-03     8.82285E-03     12.5806E-03
            5926               1     77.2328E-03     82.0092E-03     20.2202E-03     21.4834E-03
            5927               1     88.0958E-03     90.1613E-03     29.7638E-03     30.0909E-03
            5928               1     93.2088E-03     94.5852E-03     36.9107E-03     37.2183E-03
            5929               1     96.1749E-03     96.8146E-03     42.5148E-03     42.5932E-03
            5930               1     98.2425E-03     98.7300E-03     47.6117E-03     47.7003E-03
            5931               1     98.1756E-03     98.4123E-03     50.7856E-03     50.7961E-03
            5932               1     99.1664E-03     99.3692E-03     54.0248E-03     54.0538E-03
            5933               1     98.5070E-03     98.5696E-03     55.5240E-03     55.5042E-03
            5934               1     99.5192E-03     99.5823E-03     57.1912E-03     57.2020E-03
            5935               1     99.5693E-03     99.4927E-03     57.4655E-03     57.4287E-03
            5936               1     101.204E-03     101.124E-03     57.8157E-03     57.8123E-03
            5937               1     102.350E-03     102.091E-03     57.0266E-03     56.9729E-03
            5938               1     104.605E-03     104.309E-03     56.1168E-03     56.0873E-03
            5939               1     106.550E-03     105.988E-03     54.1899E-03     54.1073E-03
            5940               1     108.773E-03     108.133E-03     51.8138E-03     51.7532E-03
            5941               1     110.784E-03     109.649E-03     48.5440E-03     48.3844E-03
            5942               1     111.648E-03     110.560E-03     44.2009E-03     44.1767E-03
            5943               1     112.589E-03     110.591E-03     39.3451E-03     39.0529E-03
            5944               1     171.402E-03     171.021E-03     34.2195E-03     34.4584E-03
            5945               1     119.126E-03     117.887E-03     44.1133E-03     43.4426E-03
            5946               1     97.7096E-03     96.6060E-03     37.8966E-03     38.0662E-03
            5947               1     89.4159E-03     88.1106E-03     40.9637E-03     40.7014E-03
            5948               1     81.2378E-03     80.2273E-03     39.5054E-03     39.5651E-03
            5949               1     78.7826E-03     77.7928E-03     41.0954E-03     40.9893E-03
            5950               1     75.0468E-03     74.3616E-03     40.6034E-03     40.6328E-03
            5951               1     74.2191E-03     73.6347E-03     41.4443E-03     41.4010E-03
            5952               1     72.3784E-03     72.0781E-03     41.1634E-03     41.1896E-03
            5953               1     72.3988E-03     72.2118E-03     41.6493E-03     41.6287E-03
            5954               1     71.7722E-03     71.8646E-03     41.4376E-03     41.4744E-03
            5955               1     72.6777E-03     72.8471E-03     41.8219E-03     41.8005E-03
            5956               1     73.0980E-03     73.5706E-03     41.6338E-03     41.6999E-03
            5957               1     75.0646E-03     75.5128E-03     42.0726E-03     42.0198E-03
            5958               1     76.4590E-03     77.2851E-03     41.8083E-03     41.9378E-03
            5959               1     79.8116E-03     80.4100E-03     42.4622E-03     42.2931E-03
            5960               1     82.3211E-03     83.5071E-03     41.9095E-03     42.1683E-03
            5961               1     88.1088E-03     88.7235E-03     43.2414E-03     42.6822E-03
            5962               1     92.8521E-03     94.6781E-03     41.9354E-03     42.4174E-03
            5963               1     131.577E-03     129.770E-03     14.5901E-03     14.9702E-03
            5964               1     127.251E-03     125.312E-03     40.5043E-03     40.3014E-03
            5965               1     101.176E-03     99.7776E-03     42.7679E-03     42.2789E-03
            5966               1     93.0931E-03     91.9603E-03     42.4735E-03     42.4692E-03
            5967               1     86.9281E-03     85.7681E-03     43.8533E-03     43.5692E-03
            5968               1     82.4132E-03     81.6972E-03     43.2548E-03     43.2811E-03
            5969               1     80.3217E-03     79.5666E-03     43.9921E-03     43.8555E-03
            5970               1     77.7700E-03     77.4106E-03     43.5454E-03     43.5892E-03
            5971               1     77.0629E-03     76.6929E-03     43.9467E-03     43.8840E-03
            5972               1     75.7923E-03     75.7829E-03     43.6198E-03     43.6862E-03
            5973               1     76.1079E-03     76.0632E-03     43.9405E-03     43.8990E-03
            5974               1     75.9677E-03     76.3295E-03     43.7134E-03     43.8267E-03
            5975               1     77.3942E-03     77.5929E-03     44.1217E-03     44.0525E-03
            5976               1     78.3186E-03     79.0777E-03     43.9274E-03     44.1329E-03
            5977               1     81.0141E-03     81.3155E-03     44.5490E-03     44.3590E-03
            5978               1     83.0355E-03     84.1828E-03     44.2364E-03     44.5899E-03
            5979               1     87.3736E-03     87.5337E-03     45.2388E-03     44.6905E-03
            5980               1     91.3489E-03     92.6717E-03     44.6065E-03     45.0877E-03
            5981               1     98.1503E-03     97.8558E-03     46.1015E-03     44.7027E-03
            5982               1     106.734E-03     106.067E-03     14.1109E-03     13.3451E-03
            5983               1     103.828E-03     102.758E-03     27.7991E-03     27.9003E-03
            5984               1     104.133E-03     102.477E-03     41.6155E-03     41.3713E-03
            5985               1     92.7846E-03     91.6058E-03     43.6597E-03     43.3214E-03
            5986               1     90.2392E-03     89.3613E-03     45.2504E-03     45.2107E-03
            5987               1     86.2530E-03     85.3746E-03     45.9702E-03     45.7466E-03
            5988               1     83.7751E-03     83.3381E-03     45.8902E-03     45.9204E-03
            5989               1     82.0073E-03     81.4973E-03     46.1285E-03     46.0152E-03
            5990               1     80.2817E-03     80.1682E-03     45.7901E-03     45.8547E-03
            5991               1     79.7690E-03     79.5669E-03     45.9349E-03     45.8731E-03
            5992               1     79.0833E-03     79.2869E-03     45.6585E-03     45.7652E-03
            5993               1     79.7840E-03     79.8167E-03     45.9105E-03     45.8464E-03
            5994               1     80.2471E-03     80.8021E-03     45.7432E-03     45.9275E-03
            5995               1     82.1848E-03     82.3646E-03     46.1842E-03     46.0538E-03
            5996               1     83.7928E-03     84.6952E-03     46.0318E-03     46.3354E-03
            5997               1     86.8929E-03     87.1076E-03     46.6238E-03     46.3158E-03
            5998               1     89.9420E-03     90.9345E-03     46.2830E-03     46.6650E-03
            5999               1     93.8787E-03     94.1288E-03     46.5193E-03     45.9496E-03
            6000               1     100.374E-03     100.191E-03     45.8163E-03     45.7356E-03
            6001               1     91.6236E-03     90.0434E-03     11.9502E-03     11.8479E-03
            6002               1     92.1615E-03     90.6700E-03     27.1749E-03     26.5346E-03
            6003               1     90.9470E-03     90.0417E-03     35.4434E-03     35.3900E-03
            6004               1     94.1990E-03     92.9796E-03     43.7649E-03     43.5512E-03
            6005               1     89.5454E-03     88.6990E-03     45.5423E-03     45.3303E-03
            6006               1     89.1086E-03     88.5390E-03     47.2941E-03     47.2730E-03
            6007               1     86.3905E-03     85.8218E-03     47.5990E-03     47.4580E-03
            6008               1     84.8995E-03     84.6932E-03     47.6914E-03     47.7372E-03
            6009               1     83.4531E-03     83.1522E-03     47.6610E-03     47.5818E-03
            6010               1     82.3916E-03     82.4519E-03     47.4349E-03     47.5169E-03
            6011               1     82.2275E-03     82.1374E-03     47.4733E-03     47.4117E-03
            6012               1     82.2058E-03     82.5397E-03     47.3034E-03     47.4372E-03
            6013               1     83.3311E-03     83.4083E-03     47.5184E-03     47.4336E-03
            6014               1     84.4957E-03     85.1114E-03     47.4353E-03     47.6495E-03
            6015               1     86.6605E-03     86.9023E-03     47.7269E-03     47.5875E-03
            6016               1     88.9917E-03     89.7325E-03     47.5502E-03     47.8233E-03
            6017               1     91.4586E-03     92.0172E-03     47.3548E-03     47.2200E-03
            6018               1     95.1419E-03     95.3291E-03     46.6133E-03     46.6731E-03
            6019               1     96.2622E-03     97.6717E-03     43.6154E-03     44.2427E-03
            6020               1     76.3595E-03     75.3227E-03     12.5740E-03     11.7656E-03
            6021               1     80.2965E-03     79.1200E-03     24.2276E-03     24.1286E-03
            6022               1     86.1522E-03     84.8231E-03     35.5597E-03     35.1330E-03
            6023               1     87.2697E-03     86.5470E-03     40.8775E-03     40.7843E-03
            6024               1     90.9549E-03     90.2313E-03     46.1931E-03     46.0944E-03
            6025               1     88.6998E-03     88.1822E-03     47.3543E-03     47.2395E-03
            6026               1     88.6567E-03     88.3798E-03     48.6944E-03     48.7178E-03
            6027               1     86.5724E-03     86.2541E-03     48.7120E-03     48.6345E-03
            6028               1     85.5989E-03     85.5620E-03     48.8301E-03     48.8888E-03
            6029               1     84.5780E-03     84.4152E-03     48.7036E-03     48.6436E-03
            6030               1     84.1689E-03     84.3272E-03     48.5939E-03     48.6808E-03
            6031               1     84.4509E-03     84.4242E-03     48.5932E-03     48.5268E-03
            6032               1     85.1327E-03     85.4913E-03     48.5266E-03     48.6580E-03
            6033               1     86.5268E-03     86.6736E-03     48.6021E-03     48.5255E-03
            6034               1     88.3001E-03     88.8022E-03     48.5127E-03     48.6880E-03
            6035               1     90.0577E-03     90.5705E-03     48.2305E-03     48.2301E-03
            6036               1     92.4977E-03     92.8531E-03     47.6733E-03     47.7868E-03
            6037               1     93.0836E-03     94.3413E-03     45.6963E-03     46.1354E-03
            6038               1     94.0209E-03     94.2482E-03     43.1263E-03     42.9564E-03
            6039               1     64.4962E-03     63.0834E-03     12.3097E-03     12.1573E-03
            6040               1     71.2724E-03     69.9339E-03     25.0401E-03     24.3929E-03
            6041               1     78.5278E-03     77.7196E-03     33.5479E-03     33.5063E-03
            6042               1     86.0169E-03     85.2176E-03     41.5152E-03     41.3221E-03
            6043               1     87.3752E-03     86.9891E-03     44.6805E-03     44.6538E-03
            6044               1     89.9761E-03     89.6709E-03     48.0078E-03     48.0151E-03
            6045               1     88.2586E-03     88.0338E-03     48.5506E-03     48.5172E-03
            6046               1     88.0822E-03     88.0054E-03     49.4600E-03     49.5049E-03
            6047               1     86.5036E-03     86.3467E-03     49.3610E-03     49.3171E-03
            6048               1     86.0058E-03     86.0577E-03     49.5027E-03     49.5572E-03
            6049               1     85.5129E-03     85.4213E-03     49.3679E-03     49.3119E-03
            6050               1     85.7702E-03     85.9342E-03     49.3539E-03     49.4221E-03
            6051               1     86.4287E-03     86.4467E-03     49.2639E-03     49.2017E-03
            6052               1     87.6967E-03     87.9529E-03     49.2111E-03     49.2944E-03
            6053               1     88.9785E-03     89.2687E-03     48.9099E-03     48.9066E-03
            6054               1     90.8803E-03     91.1462E-03     48.5721E-03     48.6393E-03
            6055               1     91.4915E-03     92.4094E-03     47.2536E-03     47.5484E-03
            6056               1     92.4086E-03     92.6391E-03     45.6623E-03     45.6295E-03
            6057               1     90.8822E-03     92.0747E-03     42.1049E-03     42.7460E-03
            6058               1     52.1323E-03     50.7989E-03     13.4818E-03     12.6384E-03
            6059               1     63.4627E-03     62.3874E-03     24.7757E-03     24.7376E-03
            6060               1     75.0676E-03     74.3132E-03     34.7450E-03     34.4949E-03
            6061               1     81.7133E-03     81.3599E-03     40.1793E-03     40.2175E-03
            6062               1     87.3690E-03     87.1608E-03     45.2635E-03     45.3022E-03
            6063               1     87.6587E-03     87.6244E-03     46.8620E-03     46.9161E-03
            6064               1     88.9223E-03     88.8838E-03     48.8956E-03     48.9477E-03
            6065               1     87.4974E-03     87.4404E-03     49.1506E-03     49.1481E-03
            6066               1     87.3610E-03     87.3858E-03     49.8114E-03     49.8525E-03
            6067               1     86.3845E-03     86.2968E-03     49.7245E-03     49.6849E-03
            6068               1     86.4310E-03     86.4893E-03     49.8965E-03     49.9295E-03
            6069               1     86.4371E-03     86.3645E-03     49.7321E-03     49.6729E-03
            6070               1     87.2425E-03     87.3163E-03     49.7238E-03     49.7468E-03
            6071               1     88.0255E-03     88.0742E-03     49.3984E-03     49.3561E-03
            6072               1     89.4920E-03     89.5579E-03     49.1682E-03     49.1674E-03
            6073               1     90.2198E-03     90.6317E-03     48.2594E-03     48.3574E-03
            6074               1     91.3250E-03     91.4667E-03     47.3269E-03     47.3013E-03
            6075               1     90.4049E-03     91.3964E-03     44.9701E-03     45.4222E-03
            6076               1     88.7264E-03     89.1312E-03     42.0600E-03     42.0668E-03
            6077               1     41.5555E-03     40.3341E-03     13.8520E-03     14.0641E-03
            6078               1     58.1376E-03     57.3640E-03     26.6150E-03     26.2255E-03
            6079               1     71.2087E-03     70.7746E-03     34.5492E-03     34.6549E-03
            6080               1     80.7892E-03     80.8653E-03     41.1233E-03     41.2913E-03
            6081               1     84.2220E-03     84.4685E-03     43.8603E-03     44.0455E-03
            6082               1     87.2314E-03     87.3313E-03     46.9357E-03     47.0235E-03
            6083               1     86.9668E-03     87.1038E-03     47.8814E-03     47.9501E-03
            6084               1     87.6563E-03     87.7287E-03     49.2762E-03     49.3193E-03
            6085               1     86.7693E-03     86.7661E-03     49.5041E-03     49.4956E-03
            6086               1     86.9741E-03     87.0121E-03     50.0628E-03     50.0827E-03
            6087               1     86.5942E-03     86.5104E-03     49.9881E-03     49.9406E-03
            6088               1     87.1195E-03     87.1048E-03     50.1290E-03     50.1250E-03
            6089               1     87.3980E-03     87.3040E-03     49.8141E-03     49.7545E-03
            6090               1     88.4148E-03     88.3162E-03     49.6455E-03     49.6004E-03
            6091               1     88.9532E-03     88.9740E-03     48.9132E-03     48.8912E-03
            6092               1     89.9945E-03     89.8485E-03     48.2681E-03     48.1699E-03
            6093               1     89.8189E-03     90.1430E-03     46.6917E-03     46.8105E-03
            6094               1     89.3448E-03     89.5110E-03     45.0035E-03     44.9444E-03
            6095               1     86.3030E-03     87.2506E-03     41.6754E-03     42.2229E-03
            6096               1     32.4151E-03     31.3033E-03     15.6154E-03     14.7983E-03
            6097               1     54.6703E-03     54.0186E-03     27.6405E-03     27.8298E-03
            6098               1     70.1913E-03     70.9777E-03     36.1932E-03     36.7347E-03
            6099               1     77.5084E-03     78.1810E-03     39.9045E-03     40.2768E-03
            6100               1     82.4750E-03     82.8540E-03     43.7226E-03     43.8928E-03
            6101               1     84.3165E-03     84.7115E-03     45.5744E-03     45.7277E-03
            6102               1     86.2183E-03     86.4101E-03     47.7487E-03     47.8066E-03
            6103               1     86.2240E-03     86.3656E-03     48.5928E-03     48.6241E-03
            6104               1     87.0479E-03     87.1342E-03     49.7330E-03     49.7529E-03
            6105               1     86.7861E-03     86.7646E-03     49.9803E-03     49.9535E-03
            6106               1     87.3827E-03     87.3703E-03     50.4438E-03     50.4384E-03
            6107               1     87.3649E-03     87.2408E-03     50.2649E-03     50.2108E-03
            6108               1     88.0615E-03     87.9171E-03     50.2278E-03     50.1825E-03
            6109               1     88.2308E-03     88.0569E-03     49.5990E-03     49.5377E-03
            6110               1     88.9127E-03     88.6035E-03     49.0496E-03     48.9373E-03
            6111               1     88.8175E-03     88.6467E-03     47.8005E-03     47.7474E-03
            6112               1     88.7406E-03     88.3962E-03     46.5261E-03     46.3607E-03
            6113               1     87.3529E-03     87.2637E-03     44.3537E-03     44.3306E-03
            6114               1     84.5358E-03     84.8902E-03     41.8255E-03     41.8509E-03
            6115               1     29.2975E-03     30.5403E-03     16.7732E-03     17.6264E-03
            6116               1     54.6183E-03     56.9832E-03     30.1288E-03     31.4561E-03
            6117               1     66.7673E-03     68.2094E-03     35.0257E-03     35.6983E-03
            6118               1     73.9251E-03     74.6922E-03     39.2937E-03     39.5522E-03
            6119               1     78.8181E-03     79.5027E-03     42.2956E-03     42.5237E-03
            6120               1     82.4435E-03     82.7926E-03     45.2334E-03     45.3007E-03
            6121               1     84.2312E-03     84.5353E-03     46.9826E-03     47.0467E-03
            6122               1     86.2106E-03     86.3814E-03     48.8503E-03     48.8703E-03
            6123               1     86.7397E-03     86.8253E-03     49.6755E-03     49.6722E-03
            6124               1     87.8867E-03     87.9299E-03     50.6543E-03     50.6549E-03
            6125               1     87.9921E-03     87.9260E-03     50.7937E-03     50.7604E-03
            6126               1     88.7136E-03     88.6127E-03     51.0496E-03     51.0252E-03
            6127               1     88.6334E-03     88.4420E-03     50.5921E-03     50.5442E-03
            6128               1     89.0052E-03     88.7086E-03     50.1815E-03     50.1077E-03
            6129               1     88.5928E-03     88.2724E-03     49.0801E-03     49.0175E-03
            6130               1     88.2953E-03     87.7585E-03     47.9215E-03     47.7693E-03
            6131               1     87.0859E-03     86.5606E-03     46.0652E-03     45.9446E-03
            6132               1     85.1644E-03     84.5152E-03     43.9466E-03     43.7428E-03
            6133               1     82.1172E-03     81.2693E-03     41.2203E-03     40.9258E-03
            6134               1     38.2533E-03     38.8689E-03     18.3755E-03     20.9934E-03
            6135               1     51.1777E-03     52.8772E-03     28.8614E-03     29.5038E-03
            6136               1     60.1045E-03     61.1823E-03     33.0482E-03     33.3076E-03
            6137               1     69.5992E-03     70.3492E-03     37.9698E-03     38.1219E-03
            6138               1     75.8121E-03     76.2941E-03     41.7461E-03     41.8017E-03
            6139               1     80.3499E-03     80.7285E-03     44.7460E-03     44.7896E-03
            6140               1     84.1452E-03     84.4028E-03     47.4700E-03     47.4843E-03
            6141               1     86.1639E-03     86.3465E-03     49.1087E-03     49.1153E-03
            6142               1     88.3813E-03     88.4963E-03     50.7650E-03     50.7680E-03
            6143               1     89.1089E-03     89.1420E-03     51.4013E-03     51.3924E-03
            6144               1     90.3004E-03     90.2782E-03     52.1253E-03     52.1205E-03
            6145               1     90.3085E-03     90.1990E-03     51.9709E-03     51.9547E-03
            6146               1     90.7112E-03     90.5267E-03     51.8568E-03     51.8371E-03
            6147               1     90.0990E-03     89.8298E-03     50.9614E-03     50.9397E-03
            6148               1     89.5850E-03     89.1872E-03     49.9764E-03     49.9287E-03
            6149               1     88.0868E-03     87.5881E-03     48.2707E-03     48.2296E-03
            6150               1     86.0853E-03     85.3945E-03     46.2438E-03     46.1586E-03
            6151               1     83.1073E-03     82.1612E-03     43.6413E-03     43.5154E-03
            6152               1     78.2605E-03     77.2100E-03     40.2400E-03     40.1569E-03
            6153               1     76.5832E-03     74.9279E-03     26.5755E-03     27.4049E-03
            6154               1     73.3242E-03     72.1274E-03     40.9936E-03     40.6171E-03
            6155               1     71.7551E-03     71.4090E-03     40.7588E-03     40.8335E-03
            6156               1     77.3342E-03     76.9836E-03     44.3477E-03     44.3079E-03
            6157               1     74.9119E-03     74.6686E-03     42.9360E-03     42.9684E-03
            6158               1     75.9986E-03     75.7366E-03     43.6724E-03     43.6515E-03
            6159               1     74.7978E-03     74.6246E-03     43.0208E-03     43.0355E-03
            6160               1     75.1116E-03     74.9560E-03     43.2683E-03     43.2587E-03
            6161               1     74.6388E-03     74.5561E-03     43.0345E-03     43.0415E-03
            6162               1     74.7531E-03     74.7012E-03     43.1342E-03     43.1281E-03
            6163               1     74.5637E-03     74.5829E-03     43.0432E-03     43.0498E-03
            6164               1     74.6638E-03     74.7087E-03     43.1072E-03     43.0990E-03
            6165               1     74.5802E-03     74.7089E-03     43.0519E-03     43.0632E-03
            6166               1     74.7872E-03     74.9201E-03     43.1527E-03     43.1370E-03
            6167               1     74.7148E-03     74.9568E-03     43.0766E-03     43.0960E-03
            6168               1     75.2004E-03     75.4241E-03     43.3185E-03     43.2985E-03
            6169               1     74.9949E-03     75.3609E-03     43.1359E-03     43.1746E-03
            6170               1     76.0630E-03     76.1926E-03     43.7183E-03     43.5853E-03
            6171               1     74.1790E-03     75.3101E-03     42.4788E-03     42.9455E-03
            6172               1     43.2444E-03     42.8394E-03     19.2554E-03     18.5929E-03
            6173               1     74.6751E-03     74.2983E-03     41.7165E-03     41.7663E-03
            6174               1     79.5515E-03     79.4714E-03     45.7060E-03     45.7026E-03
            6175               1     77.1967E-03     77.0461E-03     44.1628E-03     44.1569E-03
            6176               1     76.8408E-03     76.7402E-03     44.1697E-03     44.1626E-03
            6177               1     75.8316E-03     75.7632E-03     43.5781E-03     43.5940E-03
            6178               1     75.9048E-03     75.8160E-03     43.7195E-03     43.7054E-03
            6179               1     75.5655E-03     75.5330E-03     43.5539E-03     43.5666E-03
            6180               1     75.6147E-03     75.5623E-03     43.6258E-03     43.6139E-03
            6181               1     75.4678E-03     75.4737E-03     43.5606E-03     43.5733E-03
            6182               1     75.5191E-03     75.4969E-03     43.6006E-03     43.5860E-03
            6183               1     75.4565E-03     75.5099E-03     43.5612E-03     43.5800E-03
            6184               1     75.5640E-03     75.5609E-03     43.6075E-03     43.5831E-03
            6185               1     75.5361E-03     75.6470E-03     43.5606E-03     43.5917E-03
            6186               1     75.7520E-03     75.7654E-03     43.6480E-03     43.6123E-03
            6187               1     75.7560E-03     75.9093E-03     43.5854E-03     43.6202E-03
            6188               1     76.2237E-03     76.2869E-03     43.8131E-03     43.7822E-03
            6189               1     76.4449E-03     76.7145E-03     43.8125E-03     43.9198E-03
            6190               1     77.8486E-03     77.4409E-03     44.6701E-03     44.2834E-03
            6191               1     33.7280E-03     32.8485E-03     19.3946E-03     18.7733E-03
            6192               1     69.3146E-03     69.8569E-03     39.7014E-03     39.9432E-03
            6193               1     79.8037E-03     79.9307E-03     45.3894E-03     45.4046E-03
            6194               1     76.7023E-03     76.7557E-03     44.0577E-03     44.0356E-03
            6195               1     77.1482E-03     77.2577E-03     44.2874E-03     44.2992E-03
            6196               1     76.1770E-03     76.2221E-03     43.8685E-03     43.8573E-03
            6197               1     76.4781E-03     76.5510E-03     44.0645E-03     44.0744E-03
            6198               1     76.2291E-03     76.2501E-03     43.9743E-03     43.9642E-03
            6199               1     76.3308E-03     76.3759E-03     44.0532E-03     44.0639E-03
            6200               1     76.2612E-03     76.2525E-03     44.0279E-03     44.0164E-03
            6201               1     76.2975E-03     76.3195E-03     44.0491E-03     44.0629E-03
            6202               1     76.3071E-03     76.2615E-03     44.0420E-03     44.0250E-03
            6203               1     76.3487E-03     76.3559E-03     44.0405E-03     44.0622E-03
            6204               1     76.3936E-03     76.3024E-03     44.0304E-03     44.0029E-03
            6205               1     76.4773E-03     76.4822E-03     44.0230E-03     44.0599E-03
            6206               1     76.5160E-03     76.3578E-03     43.9920E-03     43.9414E-03
            6207               1     76.8059E-03     76.7917E-03     44.0558E-03     44.1024E-03
            6208               1     76.7438E-03     76.7557E-03     43.9788E-03     44.0165E-03
            6209               1     78.4096E-03     77.4939E-03     44.6731E-03     44.3009E-03
            6210               1     53.0281E-03     52.1176E-03     23.0885E-03     24.1254E-03
            6211               1     66.4278E-03     66.1604E-03     38.2374E-03     37.9993E-03
            6212               1     69.2174E-03     69.7155E-03     39.7041E-03     39.7962E-03
            6213               1     77.3079E-03     77.5902E-03     44.3698E-03     44.3400E-03
            6214               1     75.5835E-03     75.8706E-03     43.5036E-03     43.5201E-03
            6215               1     77.4077E-03     77.6102E-03     44.5938E-03     44.5809E-03
            6216               1     76.5686E-03     76.7476E-03     44.1620E-03     44.1678E-03
            6217               1     77.1627E-03     77.2897E-03     44.5289E-03     44.5271E-03
            6218               1     76.8710E-03     76.9518E-03     44.3780E-03     44.3776E-03
            6219               1     77.0967E-03     77.1383E-03     44.5116E-03     44.5133E-03
            6220               1     77.0020E-03     76.9898E-03     44.4479E-03     44.4453E-03
            6221               1     77.1325E-03     77.0857E-03     44.5022E-03     44.5054E-03
            6222               1     77.0879E-03     76.9847E-03     44.4426E-03     44.4395E-03
            6223               1     77.2453E-03     77.1086E-03     44.4871E-03     44.4903E-03
            6224               1     77.1238E-03     76.9289E-03     44.3599E-03     44.3560E-03
            6225               1     77.4180E-03     77.1975E-03     44.4554E-03     44.4615E-03
            6226               1     76.9279E-03     76.6501E-03     44.0941E-03     44.0946E-03
            6227               1     77.5379E-03     77.0054E-03     44.3226E-03     44.2126E-03
            6228               1     74.5145E-03     74.9979E-03     42.5191E-03     42.9855E-03
            6509               1     935.560E-18     1.12718E-15     23.0913E-18    -23.0913E-18
            6510               1     2.03046E-15     2.17785E-15     336.350E-18     426.406E-18
            6511               1     793.056E-18     529.339E-18     457.579E-18     305.177E-18
            6512               1     1.02467E-15     992.711E-18     48.4917E-18    -48.4917E-18
            6513               1     1.98627E-15     1.99706E-15     1.14529E-15     1.14298E-15
            6514               1     1.89093E-15     2.61407E-15     922.459E-18     1.36581E-15
            6515               1     941.593E-18     1.17585E-15     137.393E-18    -137.393E-18
            6516               1     1.68531E-15     1.63345E-15     806.630E-18     718.883E-18
            6517               1     871.127E-18     1.18551E-15    -95.8287E-18     95.8287E-18
            6518               1     382.001E-18     227.761E-18    -85.4377E-18     85.4377E-18
            6519               1     268.068E-18     268.068E-18     91.2105E-18    -91.2105E-18
            6520               1     1.42756E-15     1.51860E-15    -703.874E-18    -821.639E-18
            6521               1     3.26113E-15     3.32278E-15     729.274E-18     796.239E-18
            6522               1     1.32380E-15     1.51271E-15    -728.120E-18    -797.393E-18
            6523               1     201.575E-03     205.251E-03     55.5696E-03     52.1729E-03
            6524               1     245.614E-03     256.500E-03     53.6969E-03     49.9385E-03
            6525               1     219.501E-03     219.192E-03     54.2641E-03     52.9881E-03
            6526               1     246.551E-03     234.955E-03     46.1397E-03     46.5971E-03
            6527               1     214.661E-03     215.045E-03     45.1174E-03     46.5382E-03
            6528               1     229.764E-03     237.746E-03     39.2075E-03     37.9608E-03
            6529               1     208.811E-03     211.221E-03     42.5458E-03     41.2718E-03
            6530               1     226.255E-03     223.076E-03     34.5461E-03     34.2879E-03
            6531               1     203.285E-03     204.636E-03     38.2675E-03     39.3862E-03
            6532               1     216.110E-03     218.805E-03     32.6829E-03     32.2412E-03
            6533               1     197.622E-03     199.019E-03     37.9827E-03     37.4118E-03
            6534               1     209.312E-03     210.103E-03     30.5669E-03     30.9479E-03
            6535               1     190.934E-03     193.519E-03     34.7722E-03     36.1613E-03
            6536               1     202.010E-03     201.322E-03     29.5608E-03     29.9165E-03
            6537               1     183.821E-03     184.118E-03     33.7730E-03     33.6308E-03
            6538               1     190.158E-03     194.553E-03     26.2050E-03     27.3513E-03
            6539               1     173.167E-03     174.549E-03     28.9816E-03     30.1798E-03
            6540               1     181.894E-03     175.969E-03     23.4240E-03     24.1845E-03
            6541               1     156.155E-03     156.006E-03     27.2558E-03     28.2777E-03
            6542               1     164.474E-03     169.848E-03     17.9542E-03     21.4433E-03
            6543               1     151.110E-03     153.577E-03     50.8507E-03     48.1904E-03
            6544               1     182.355E-03     190.436E-03     47.7398E-03     45.1893E-03
            6545               1     162.711E-03     162.304E-03     50.0503E-03     49.1868E-03
            6546               1     180.413E-03     172.224E-03     42.3537E-03     42.8617E-03
            6547               1     156.629E-03     157.123E-03     43.2266E-03     44.3869E-03
            6548               1     165.114E-03     170.860E-03     37.0404E-03     36.1925E-03
            6549               1     150.639E-03     152.177E-03     41.2502E-03     40.4200E-03
            6550               1     160.285E-03     157.856E-03     33.7152E-03     33.5593E-03
            6551               1     145.074E-03     146.027E-03     38.2201E-03     39.0571E-03
            6552               1     150.832E-03     152.860E-03     32.3302E-03     32.0257E-03
            6553               1     139.760E-03     140.757E-03     38.0301E-03     37.7409E-03
            6554               1     144.300E-03     144.493E-03     30.9195E-03     31.1634E-03
            6555               1     133.895E-03     135.578E-03     36.0678E-03     37.0130E-03
            6556               1     137.001E-03     136.981E-03     30.3917E-03     30.6451E-03
            6557               1     127.827E-03     128.288E-03     35.6637E-03     35.7820E-03
            6558               1     127.181E-03     129.403E-03     28.3721E-03     29.1195E-03
            6559               1     119.773E-03     120.930E-03     33.1954E-03     33.9812E-03
            6560               1     118.662E-03     116.198E-03     27.2100E-03     27.9199E-03
            6561               1     109.554E-03     108.286E-03     31.9748E-03     32.2602E-03
            6562               1     105.216E-03     107.872E-03     23.9113E-03     26.1925E-03
            6563               1     104.824E-03     105.802E-03     45.9044E-03     43.9978E-03
            6564               1     121.458E-03     126.665E-03     41.5083E-03     40.1544E-03
            6565               1     110.083E-03     109.692E-03     45.5821E-03     45.1119E-03
            6566               1     117.237E-03     112.778E-03     38.3484E-03     38.9348E-03
            6567               1     103.404E-03     104.120E-03     41.1688E-03     42.0631E-03
            6568               1     103.938E-03     107.346E-03     34.6071E-03     34.1571E-03
            6569               1     97.5744E-03     98.2239E-03     39.6219E-03     39.1672E-03
            6570               1     98.4274E-03     97.0006E-03     32.5606E-03     32.5942E-03
            6571               1     92.8546E-03     93.4388E-03     37.9814E-03     38.5249E-03
            6572               1     90.0784E-03     91.3692E-03     31.5268E-03     31.3282E-03
            6573               1     88.3157E-03     88.7868E-03     37.5907E-03     37.4310E-03
            6574               1     85.1302E-03     84.9342E-03     30.9949E-03     31.1934E-03
            6575               1     84.7897E-03     85.5064E-03     37.2241E-03     37.7491E-03
            6576               1     78.5247E-03     78.9571E-03     30.5623E-03     30.5250E-03
            6577               1     81.1846E-03     81.6338E-03     37.1805E-03     37.2861E-03
            6578               1     73.8553E-03     74.0991E-03     30.8068E-03     31.1484E-03
            6579               1     78.1315E-03     79.0884E-03     37.3217E-03     37.9670E-03
            6580               1     68.0501E-03     68.2324E-03     30.4427E-03     30.6583E-03
            6581               1     75.6773E-03     76.1833E-03     37.6193E-03     37.8146E-03
            6582               1     63.5079E-03     64.5222E-03     31.0735E-03     31.7614E-03
            6583               1     72.6922E-03     70.6892E-03     36.8478E-03     36.3926E-03
            6584               1     58.1981E-03     58.6978E-03     30.2142E-03     31.1311E-03
            6585               1     75.6153E-03     74.5616E-03     43.1808E-03     42.1543E-03
            6586               1     70.3025E-03     71.8697E-03     37.7775E-03     37.6363E-03
            6587               1     76.3648E-03     77.4580E-03     43.3874E-03     44.0134E-03
            6588               1     66.1375E-03     65.5965E-03     36.4810E-03     36.7136E-03
            6589               1     74.4150E-03     76.1059E-03     42.4820E-03     43.4346E-03
            6590               1     62.7817E-03     63.4106E-03     35.9965E-03     36.1451E-03
            6591               1     73.7016E-03     71.8678E-03     42.0585E-03     41.2014E-03
            6592               1     62.2893E-03     62.8166E-03     35.9494E-03     36.2075E-03
            6593               1     5.03828E-15     4.83414E-15     449.446E-18     503.999E-18
            6594               1     2.95724E-15     3.50378E-15     470.135E-18     292.621E-18
            6595               1     1.80620E-15     2.06832E-15     508.278E-18     635.857E-18
            6596               1     854.341E-18     1.57997E-15     328.124E-18     434.633E-18
            6597               1     2.17718E-15     1.54866E-15     721.202E-18     232.244E-18
            6598               1     1.81526E-15     2.52025E-15     747.747E-18     777.766E-18
            6599               1     451.124E-18     774.303E-18     83.6034E-18     297.775E-18
            6600               1     2.37046E-15     2.32679E-15     670.494E-18     473.641E-18
            6601               1     2.78243E-15     2.84974E-15    -1.47789E-15    -1.57314E-15
            6602               1     1.22636E-15     1.95297E-15     502.794E-18     641.341E-18
            6603               1     991.785E-18     683.286E-18     491.639E-18     271.118E-18
            6604               1     2.01104E-15     2.61607E-15     463.250E-18     680.885E-18
            6605               1     4.15943E-15     4.13921E-15    -326.062E-18    -55.3166E-18
            6606               1     1.67336E-15     1.84292E-15    -909.861E-18    -997.031E-18
            6607               1     4.35981E-15     4.62693E-15     942.664E-18     1.34561E-15
            6608               1     658.492E-18     837.920E-18     214.935E-18     166.443E-18
            6609               1     2.24759E-15     2.74322E-15    -1.01136E-15    -1.27691E-15
            6610               1     2.85594E-15     1.99243E-15    -1.00637E-15    -519.144E-18
            6611               1     1.68892E-15     1.17279E-15     606.518E-18     156.238E-18
            6612               1     1.77185E-15     2.44243E-15     268.622E-18     112.756E-18
            6613               1     582.467E-18     1.58058E-15    -205.698E-18    -175.680E-18
            6614               1     2.41305E-15     1.58923E-15     1.38428E-15     903.986E-18
            6615               1     2.98859E-15     3.29264E-15     935.550E-18     971.341E-18
            6616               1     3.91474E-15     4.11108E-15    -399.088E-18     17.7095E-18
            6617               1     1.69082E-15     699.983E-18     44.4507E-18    -44.4507E-18
            6618               1     2.41826E-15     1.91887E-15     200.503E-18     180.875E-18
            6619               1     2.80377E-15     3.48311E-15     242.067E-18     139.311E-18
            6620               1     3.48019E-15     3.79365E-15    -1.31443E-15    -973.837E-18
            6621               1     1.39146E-15     823.491E-18    -4.61825E-18     4.61825E-18
            6622               1     2.05854E-15     1.83990E-15     913.427E-18     612.086E-18
            6623               1     764.649E-18     1.49593E-15     8.08194E-18    -8.08194E-18
            6624               1     1.23522E-15     1.23486E-15     358.864E-18     403.892E-18
            6625               1     2.66518E-15     2.87967E-15    -1.20302E-15    -1.08525E-15
            6626               1     2.63877E-15     2.74153E-15     745.438E-18     780.075E-18
            6627               1     2.40079E-15     2.30361E-15     107.952E-18    -107.952E-18
            6628               1     2.01284E-15     1.39405E-15    -837.803E-18    -687.710E-18
            6629               1     2.29608E-15     2.26161E-15    -1.12104E-15    -1.16723E-15
            6630               1     2.11933E-15     2.35134E-15     315.568E-18     447.188E-18
            6631               1     1.56999E-15     1.73196E-15     431.025E-18     331.732E-18
            6632               1     1.26501E-15     1.52174E-15     429.870E-18     332.887E-18
            6633               1     719.401E-18     350.816E-18    -20.7821E-18     20.7821E-18
            6634               1     500.911E-18     519.305E-18     8.08194E-18    -8.08194E-18
            1732               1     27.6871E-03     31.7389E-03    -14.8603E-03    -12.3527E-03
            1733               1     30.2346E-03     30.3557E-03    -17.3890E-03    -16.1226E-03
            1734               1     29.5974E-03     30.9697E-03    -16.9782E-03    -16.9048E-03
            1735               1     30.6496E-03     31.2031E-03    -17.5738E-03    -17.0924E-03
            1736               1     29.3792E-03     31.2061E-03    -16.7323E-03    -16.9346E-03
            1737               1     27.5956E-03     28.8324E-03    -15.6821E-03    -15.4809E-03
            1738               1     23.9377E-03     27.3916E-03    -13.6217E-03    -14.6696E-03
            1739               1     17.6996E-03     20.0446E-03    -9.15131E-03    -11.4107E-03
            1740               1     22.7335E-03     22.6861E-03    -11.1171E-03    -12.3427E-03
            1741               1     31.1944E-03     29.7093E-03    -17.6693E-03    -16.2313E-03
            1742               1     31.6643E-03     30.7554E-03    -18.1731E-03    -17.1822E-03
            1743               1     31.5967E-03     32.5219E-03    -17.9839E-03    -17.9704E-03
            1744               1     31.6575E-03     31.7510E-03    -17.8714E-03    -17.2903E-03
            1745               1     29.5102E-03     31.5631E-03    -16.3234E-03    -16.8015E-03
            1746               1     26.3321E-03     28.5763E-03    -14.5451E-03    -15.4935E-03
            1747               1     18.8238E-03     17.2858E-03    -10.1308E-03    -9.77355E-03
            1748               1     17.9817E-03     20.7393E-03    -10.2645E-03    -11.6258E-03
            1749               1     26.5627E-03     28.0430E-03    -14.9754E-03    -16.0209E-03
            1750               1     32.3300E-03     32.3153E-03    -18.4369E-03    -18.2563E-03
            1751               1     33.3519E-03     32.9027E-03    -18.9412E-03    -18.4120E-03
            1752               1     33.2171E-03     33.8922E-03    -18.4941E-03    -18.5171E-03
            1753               1     32.3024E-03     32.3623E-03    -17.6218E-03    -17.3320E-03
            1754               1     28.5786E-03     26.7965E-03    -14.9726E-03    -14.0409E-03
            1755               1     19.9330E-03     20.2121E-03    -9.88592E-03    -9.13503E-03
            1756               1     18.1150E-03     19.9913E-03    -10.4171E-03    -11.4454E-03
            1757               1     25.5449E-03     27.4796E-03    -14.7340E-03    -15.8235E-03
            1758               1     30.7826E-03     31.9814E-03    -17.5670E-03    -18.3261E-03
            1759               1     34.1667E-03     34.5006E-03    -19.2994E-03    -19.4146E-03
            1760               1     34.7822E-03     34.3713E-03    -19.2619E-03    -18.8783E-03
            1761               1     33.9120E-03     32.5841E-03    -18.0405E-03    -17.2383E-03
            1762               1     29.8724E-03     29.1091E-03    -14.9887E-03    -13.9923E-03
            1763               1     25.0876E-03     22.8142E-03    -9.84496E-03    -8.99374E-03
            1764               1     19.2653E-03     20.3410E-03    -10.3749E-03    -11.3120E-03
            1765               1     25.2926E-03     27.3388E-03    -14.5844E-03    -15.7008E-03
            1766               1     30.4062E-03     31.8150E-03    -17.4922E-03    -18.3100E-03
            1767               1     33.9082E-03     34.2958E-03    -19.1516E-03    -19.4916E-03
            1768               1     35.6665E-03     35.2519E-03    -19.4996E-03    -19.3603E-03
            1769               1     34.5954E-03     33.5189E-03    -18.0484E-03    -17.2122E-03
            1770               1     32.8855E-03     30.7141E-03    -15.1527E-03    -14.1561E-03
            1771               1     28.6668E-03     28.5698E-03    -10.2569E-03    -9.18046E-03
            1772               1     19.9647E-03     22.9513E-03    -10.0158E-03    -11.0453E-03
            1773               1     25.8464E-03     27.3227E-03    -14.5322E-03    -15.5058E-03
            1774               1     31.1041E-03     31.5235E-03    -17.9280E-03    -18.1818E-03
            1775               1     33.4476E-03     32.9553E-03    -18.7768E-03    -18.7631E-03
            1776               1     34.2468E-03     34.4482E-03    -18.5818E-03    -19.1424E-03
            1777               1     36.3691E-03     35.9607E-03    -18.3565E-03    -18.4846E-03
            1778               1     35.0528E-03     34.1780E-03    -15.5311E-03    -14.2264E-03
            1779               1     35.2137E-03     31.7803E-03    -10.2796E-03    -9.18122E-03
            1780               1     26.4983E-03     25.0210E-03    -10.6341E-03    -11.2941E-03
            1781               1     29.6000E-03     28.8491E-03    -16.6472E-03    -15.5434E-03
            1782               1     29.8632E-03     29.0421E-03    -17.1602E-03    -16.7243E-03
            1783               1     30.9172E-03     31.1594E-03    -17.3206E-03    -17.9001E-03
            1784               1     33.6217E-03     32.1567E-03    -17.8217E-03    -17.8428E-03
            1785               1     34.8869E-03     34.5438E-03    -17.2382E-03    -18.3882E-03
            1786               1     39.9873E-03     39.8036E-03    -16.6752E-03    -17.9014E-03
            1787               1     40.1157E-03     42.3557E-03    -11.9934E-03    -10.7765E-03
            1788               1     29.9571E-03     35.0839E-03    -14.1606E-03    -11.6303E-03
            1789               1     27.0819E-03     27.6376E-03    -15.5050E-03    -14.5479E-03
            1790               1     26.1223E-03     26.6145E-03    -15.0196E-03    -15.1865E-03
            1791               1     28.7543E-03     27.2385E-03    -15.8808E-03    -15.6836E-03
            1792               1     30.8228E-03     29.3739E-03    -16.0190E-03    -16.5342E-03
            1793               1     34.2453E-03     30.5933E-03    -16.0405E-03    -16.1110E-03
            1794               1     40.2522E-03     36.2909E-03    -16.6148E-03    -18.1775E-03
            1795               1     54.9042E-03     45.3876E-03    -15.1677E-03    -17.0763E-03
            1796               1     28.1838E-03     31.3179E-03    -15.9843E-03    -13.4506E-03
            1797               1     34.1038E-03     34.1852E-03    -19.5733E-03    -17.8145E-03
            1798               1     34.4372E-03     36.6007E-03    -18.9028E-03    -18.4290E-03
            1799               1     37.2869E-03     39.0296E-03    -19.1268E-03    -18.2692E-03
            1800               1     38.3394E-03     41.0152E-03    -17.1430E-03    -16.9905E-03
            1801               1     40.0212E-03     42.3275E-03    -14.9577E-03    -14.5507E-03
            1802               1     39.0319E-03     42.9905E-03    -10.2734E-03    -10.8782E-03
            1803               1     33.9511E-03     41.9724E-03    -2.88462E-03    -5.43777E-03
            1804               1     22.3076E-03     23.8977E-03    -11.9051E-03    -13.7079E-03
            1805               1     33.8532E-03     31.2714E-03    -18.9661E-03    -16.8640E-03
            1806               1     35.5178E-03     34.0731E-03    -19.3439E-03    -17.4431E-03
            1807               1     37.7804E-03     38.4195E-03    -18.5605E-03    -17.6636E-03
            1808               1     41.2691E-03     42.0193E-03    -17.6938E-03    -16.4778E-03
            1809               1     43.8609E-03     46.2094E-03    -15.0667E-03    -14.9592E-03
            1810               1     46.9039E-03     49.9213E-03    -12.0235E-03    -12.8801E-03
            1811               1     49.6343E-03     47.3714E-03    -7.97844E-03    -8.66611E-03
            1812               1     19.4936E-03     21.9361E-03    -10.9281E-03    -12.6168E-03
            1813               1     28.5824E-03     29.2112E-03    -15.7212E-03    -16.5169E-03
            1814               1     36.0104E-03     34.4730E-03    -19.0867E-03    -18.0082E-03
            1815               1     39.5403E-03     38.5578E-03    -19.0529E-03    -17.7262E-03
            1816               1     43.8690E-03     44.2114E-03    -18.1336E-03    -17.4360E-03
            1817               1     48.6479E-03     49.3854E-03    -16.5198E-03    -15.9685E-03
            1818               1     52.7431E-03     52.1969E-03    -14.0067E-03    -13.7649E-03
            1819               1     53.2609E-03     54.6628E-03    -9.06013E-03    -8.93153E-03
            1820               1     20.5886E-03     22.2273E-03    -11.2972E-03    -12.1547E-03
            1821               1     26.8917E-03     28.1341E-03    -15.3114E-03    -16.0616E-03
            1822               1     34.0407E-03     34.0043E-03    -17.7675E-03    -18.0790E-03
            1823               1     40.8589E-03     40.0705E-03    -19.4055E-03    -18.8348E-03
            1824               1     46.2400E-03     45.7752E-03    -18.7940E-03    -18.0276E-03
            1825               1     51.8619E-03     51.0766E-03    -17.4881E-03    -16.7235E-03
            1826               1     55.6279E-03     55.8012E-03    -14.2546E-03    -13.6655E-03
            1827               1     60.9760E-03     59.1635E-03    -8.98858E-03    -8.84744E-03
            1828               1     22.1974E-03     23.0599E-03    -11.1530E-03    -12.0265E-03
            1829               1     25.9903E-03     27.5228E-03    -14.9163E-03    -15.8733E-03
            1830               1     33.3519E-03     34.2068E-03    -17.8920E-03    -18.4825E-03
            1831               1     40.6594E-03     40.4107E-03    -19.0608E-03    -19.1355E-03
            1832               1     47.9299E-03     47.2119E-03    -19.3980E-03    -18.9627E-03
            1833               1     53.8440E-03     53.3514E-03    -17.6289E-03    -16.8086E-03
            1834               1     60.1760E-03     58.5955E-03    -14.3733E-03    -13.6156E-03
            1835               1     65.6487E-03     65.3360E-03    -9.53630E-03    -8.90785E-03
            1836               1     23.9433E-03     25.3484E-03    -11.0171E-03    -11.6549E-03
            1837               1     26.1736E-03     27.6786E-03    -15.0050E-03    -15.9258E-03
            1838               1     32.4144E-03     33.5073E-03    -17.6043E-03    -18.5250E-03
            1839               1     40.6946E-03     41.1682E-03    -19.3823E-03    -19.8527E-03
            1840               1     48.3095E-03     48.0028E-03    -19.2027E-03    -19.0461E-03
            1841               1     56.5031E-03     55.3739E-03    -17.9890E-03    -17.3906E-03
            1842               1     63.4834E-03     63.0622E-03    -14.6747E-03    -13.6951E-03
            1843               1     72.3036E-03     69.8887E-03    -9.38806E-03    -8.65466E-03
            1844               1     27.3826E-03     27.2155E-03    -11.1605E-03    -11.4306E-03
            1845               1     26.2253E-03     27.9147E-03    -14.8281E-03    -15.6663E-03
            1846               1     31.5817E-03     32.9479E-03    -17.5192E-03    -18.4672E-03
            1847               1     39.7893E-03     40.1972E-03    -19.1091E-03    -19.9153E-03
            1848               1     49.5939E-03     49.7905E-03    -19.5872E-03    -20.1004E-03
            1849               1     57.8078E-03     57.5322E-03    -17.8955E-03    -17.2768E-03
            1850               1     67.8775E-03     66.0101E-03    -14.9967E-03    -14.1693E-03
            1851               1     76.9228E-03     76.5816E-03    -10.3727E-03    -9.32625E-03
            1852               1     28.6850E-03     31.2038E-03    -10.2465E-03    -10.7038E-03
            1853               1     26.7875E-03     27.6574E-03    -14.4880E-03    -15.0612E-03
            1854               1     31.4184E-03     31.9490E-03    -17.6743E-03    -18.2787E-03
            1855               1     39.2748E-03     38.9335E-03    -18.5743E-03    -19.2859E-03
            1856               1     47.7991E-03     47.6851E-03    -18.6392E-03    -19.9996E-03
            1857               1     60.8655E-03     61.2366E-03    -18.8861E-03    -19.7860E-03
            1858               1     70.9420E-03     71.4053E-03    -15.8197E-03    -14.3216E-03
            1859               1     83.8094E-03     79.9460E-03    -10.4775E-03    -9.16740E-03
            1860               1     35.8382E-03     33.7369E-03    -10.5592E-03    -10.3949E-03
            1861               1     29.6527E-03     29.6750E-03    -15.9458E-03    -15.0327E-03
            1862               1     29.1996E-03     28.4890E-03    -16.2221E-03    -16.3068E-03
            1863               1     35.6036E-03     34.9935E-03    -16.6393E-03    -17.8622E-03
            1864               1     47.2336E-03     44.9231E-03    -17.5529E-03    -18.4438E-03
            1865               1     58.5958E-03     56.5429E-03    -18.0995E-03    -20.2370E-03
            1866               1     77.5485E-03     77.0933E-03    -18.9193E-03    -20.6836E-03
            1867               1     89.6686E-03     92.6809E-03    -13.9473E-03    -11.9045E-03
            1868               1     37.5619E-03     42.9717E-03    -13.9630E-03    -11.4370E-03
            1869               1     24.7901E-03     26.0874E-03    -13.7116E-03    -13.0299E-03
            1870               1     23.2469E-03     22.9302E-03    -12.8529E-03    -13.2145E-03
            1871               1     31.7779E-03     28.3491E-03    -13.7548E-03    -13.8941E-03
            1872               1     42.9883E-03     38.3798E-03    -14.9513E-03    -15.8600E-03
            1873               1     57.1327E-03     49.8399E-03    -16.1053E-03    -16.5954E-03
            1874               1     75.0262E-03     65.7975E-03    -19.9505E-03    -22.2452E-03
            1875               1     106.669E-03     91.8587E-03    -22.4262E-03    -23.9091E-03
            1876               1     29.2500E-03     29.1764E-03    -16.7835E-03    -14.2433E-03
            1877               1     38.2965E-03     38.0060E-03    -22.0392E-03    -19.7903E-03
            1878               1     40.6740E-03     43.7250E-03    -21.0768E-03    -20.2373E-03
            1879               1     48.8643E-03     51.3089E-03    -21.1894E-03    -19.9153E-03
            1880               1     56.3874E-03     58.5089E-03    -17.8098E-03    -17.2243E-03
            1881               1     66.5004E-03     67.2918E-03    -14.3751E-03    -13.6406E-03
            1882               1     74.6066E-03     75.0255E-03    -6.40574E-03    -6.35265E-03
            1883               1     85.1716E-03     88.3376E-03     4.74166E-03     1.83913E-03
            1884               1     22.7083E-03     27.3483E-03    -12.5953E-03    -15.2034E-03
            1885               1     35.7247E-03     32.1226E-03    -20.0260E-03    -17.3962E-03
            1886               1     41.0753E-03     39.1570E-03    -20.6901E-03    -17.8947E-03
            1887               1     49.1398E-03     49.3338E-03    -19.1350E-03    -17.3207E-03
            1888               1     60.7680E-03     61.4394E-03    -17.6893E-03    -15.6470E-03
            1889               1     72.2579E-03     73.7862E-03    -13.7683E-03    -12.7795E-03
            1890               1     86.7914E-03     89.7948E-03    -9.23096E-03    -9.74517E-03
            1891               1     99.6160E-03     97.7959E-03    -5.62495E-03    -7.33809E-03
            1892               1     23.1664E-03     24.9207E-03    -11.1778E-03    -13.4282E-03
            1893               1     30.1526E-03     30.3232E-03    -16.4098E-03    -17.1996E-03
            1894               1     41.0789E-03     38.0131E-03    -19.4400E-03    -17.5584E-03
            1895               1     51.6211E-03     50.1033E-03    -19.2895E-03    -17.0853E-03
            1896               1     64.5449E-03     64.3116E-03    -17.7794E-03    -16.1874E-03
            1897               1     79.0744E-03     80.1518E-03    -15.4578E-03    -14.3877E-03
            1898               1     93.0939E-03     93.2388E-03    -13.2459E-03    -13.5222E-03
            1899               1     103.178E-03     103.823E-03    -8.37180E-03    -8.64644E-03
            1900               1     25.1346E-03     26.9804E-03    -11.7921E-03    -12.7614E-03
            1901               1     27.2910E-03     28.0611E-03    -15.3538E-03    -15.9785E-03
            1902               1     39.6481E-03     38.3129E-03    -18.0576E-03    -17.9816E-03
            1903               1     53.4995E-03     51.4023E-03    -19.2818E-03    -17.9456E-03
            1904               1     67.7177E-03     67.0413E-03    -18.4094E-03    -17.1392E-03
            1905               1     83.1894E-03     82.5824E-03    -17.2162E-03    -16.3594E-03
            1906               1     96.3835E-03     96.1469E-03    -13.6899E-03    -13.2914E-03
            1907               1     111.084E-03     109.122E-03    -8.35689E-03    -8.73909E-03
            1908               1     27.5590E-03     28.2003E-03    -11.3262E-03    -12.4114E-03
            1909               1     27.0553E-03     28.0318E-03    -15.3493E-03    -16.1089E-03
            1910               1     38.2793E-03     37.8415E-03    -17.7989E-03    -17.9793E-03
            1911               1     53.7740E-03     52.7653E-03    -19.0312E-03    -18.8365E-03
            1912               1     70.1502E-03     68.8058E-03    -19.1877E-03    -18.3565E-03
            1913               1     85.2288E-03     84.3467E-03    -17.2185E-03    -16.4339E-03
            1914               1     101.434E-03     99.9837E-03    -14.1784E-03    -13.6588E-03
            1915               1     116.861E-03     114.924E-03    -9.19481E-03    -8.68924E-03
            1916               1     30.4703E-03     30.7833E-03    -11.8792E-03    -12.1421E-03
            1917               1     26.4047E-03     27.7845E-03    -15.1005E-03    -15.9641E-03
            1918               1     37.5387E-03     38.0512E-03    -17.8475E-03    -18.6586E-03
            1919               1     53.7568E-03     53.0691E-03    -19.2634E-03    -19.3493E-03
            1920               1     70.7776E-03     70.1158E-03    -19.1039E-03    -19.0219E-03
            1921               1     88.4385E-03     87.2498E-03    -17.6827E-03    -16.9014E-03
            1922               1     104.980E-03     103.257E-03    -14.1546E-03    -13.4073E-03
            1923               1     122.271E-03     120.522E-03    -9.22916E-03    -8.89916E-03
            1924               1     33.1920E-03     33.9596E-03    -11.3150E-03    -11.8622E-03
            1925               1     27.1338E-03     28.2682E-03    -15.3471E-03    -16.0864E-03
            1926               1     36.2608E-03     37.0377E-03    -17.8219E-03    -18.8240E-03
            1927               1     53.3183E-03     53.7566E-03    -19.3180E-03    -20.2516E-03
            1928               1     71.6563E-03     71.1743E-03    -19.2909E-03    -19.3297E-03
            1929               1     90.4113E-03     89.5125E-03    -17.8302E-03    -17.5350E-03
            1930               1     109.162E-03     108.159E-03    -14.5731E-03    -13.6246E-03
            1931               1     128.618E-03     125.390E-03    -9.27953E-03    -8.47648E-03
            1932               1     37.0402E-03     36.5877E-03    -11.5071E-03    -11.2862E-03
            1933               1     27.1576E-03     28.7394E-03    -15.0064E-03    -15.7877E-03
            1934               1     34.8305E-03     35.9367E-03    -17.5000E-03    -18.7327E-03
            1935               1     51.9265E-03     52.0812E-03    -19.2185E-03    -20.5627E-03
            1936               1     72.7244E-03     73.3774E-03    -19.7039E-03    -20.9431E-03
            1937               1     92.1978E-03     92.1849E-03    -17.9784E-03    -17.4862E-03
            1938               1     113.155E-03     111.232E-03    -15.0841E-03    -14.2744E-03
            1939               1     133.119E-03     132.023E-03    -10.7073E-03    -9.48387E-03
            1940               1     38.9240E-03     40.9992E-03    -10.2656E-03    -10.2216E-03
            1941               1     27.2011E-03     27.9463E-03    -14.1836E-03    -14.5708E-03
            1942               1     33.4396E-03     34.0236E-03    -17.3911E-03    -18.6004E-03
            1943               1     51.0736E-03     50.7629E-03    -18.3481E-03    -19.9664E-03
            1944               1     70.2692E-03     69.7947E-03    -18.9033E-03    -21.1184E-03
            1945               1     95.2860E-03     96.3494E-03    -19.6781E-03    -21.3063E-03
            1946               1     116.368E-03     117.481E-03    -16.3954E-03    -14.4754E-03
            1947               1     139.646E-03     135.003E-03    -10.9061E-03    -9.20847E-03
            1948               1     45.7429E-03     44.0567E-03    -10.1816E-03    -9.19434E-03
            1949               1     29.3130E-03     30.4230E-03    -15.0178E-03    -14.5370E-03
            1950               1     30.0547E-03     29.5301E-03    -15.0270E-03    -15.9088E-03
            1951               1     46.2241E-03     44.7941E-03    -15.9796E-03    -18.0247E-03
            1952               1     69.1174E-03     66.2188E-03    -17.3929E-03    -19.2217E-03
            1953               1     91.1566E-03     87.9437E-03    -19.2966E-03    -22.4163E-03
            1954               1     123.403E-03     123.148E-03    -21.6403E-03    -23.8643E-03
            1955               1     146.073E-03     149.567E-03    -16.3129E-03    -13.2108E-03
            1956               1     46.3243E-03     50.5403E-03    -13.4946E-03    -10.9902E-03
            1957               1     22.0959E-03     23.7208E-03    -11.4515E-03    -11.2121E-03
            1958               1     22.2955E-03     21.1299E-03    -10.4923E-03    -11.1580E-03
            1959               1     41.2784E-03     36.6678E-03    -11.4730E-03    -12.0300E-03
            1960               1     63.1445E-03     56.3211E-03    -13.9913E-03    -15.3363E-03
            1961               1     88.0854E-03     78.0082E-03    -16.4229E-03    -17.3215E-03
            1962               1     116.833E-03     103.350E-03    -23.8907E-03    -26.9292E-03
            1963               1     164.488E-03     144.977E-03    -30.5700E-03    -31.6038E-03
            1964               1     33.1699E-03     27.5101E-03    -17.5532E-03    -15.0047E-03
            1965               1     42.5021E-03     41.4905E-03    -24.5172E-03    -21.7980E-03
            1966               1     47.9287E-03     51.7073E-03    -23.5541E-03    -22.3623E-03
            1967               1     63.1059E-03     65.7973E-03    -23.4635E-03    -21.7608E-03
            1968               1     78.8516E-03     79.8315E-03    -18.7035E-03    -17.6662E-03
            1969               1     98.5869E-03     97.1592E-03    -13.8958E-03    -12.7791E-03
            1970               1     116.650E-03     113.200E-03    -2.31350E-03    -1.53687E-03
            1971               1     142.826E-03     141.354E-03     13.0061E-03     9.66624E-03
            1972               1     26.4719E-03     34.2177E-03    -13.1602E-03    -16.6098E-03
            1973               1     37.6007E-03     32.9526E-03    -21.1981E-03    -18.0654E-03
            1974               1     47.4793E-03     45.1123E-03    -22.0155E-03    -18.3595E-03
            1975               1     63.5578E-03     63.2587E-03    -19.8735E-03    -17.1559E-03
            1976               1     85.0659E-03     85.3850E-03    -17.7586E-03    -14.8104E-03
            1977               1     106.214E-03     106.893E-03    -12.4744E-03    -10.5241E-03
            1978               1     133.203E-03     136.441E-03    -6.32663E-03    -6.44068E-03
            1979               1     155.973E-03     154.598E-03    -3.12348E-03    -5.96359E-03
            1980               1     30.5958E-03     31.3226E-03    -11.3913E-03    -14.1787E-03
            1981               1     31.2220E-03     31.1386E-03    -16.9308E-03    -17.8149E-03
            1982               1     47.3249E-03     42.9105E-03    -19.9196E-03    -17.3146E-03
            1983               1     67.0518E-03     65.1164E-03    -19.5098E-03    -16.4110E-03
            1984               1     89.8189E-03     89.2202E-03    -17.5163E-03    -15.0333E-03
            1985               1     115.381E-03     116.948E-03    -14.4700E-03    -12.7684E-03
            1986               1     139.443E-03     140.140E-03    -12.5087E-03    -13.2991E-03
            1987               1     159.017E-03     158.842E-03    -7.77867E-03    -8.51490E-03
            1988               1     32.4445E-03     34.6879E-03    -11.8588E-03    -13.1066E-03
            1989               1     27.6361E-03     28.0328E-03    -15.4351E-03    -16.0231E-03
            1990               1     46.3985E-03     43.8346E-03    -18.1881E-03    -17.8058E-03
            1991               1     69.4657E-03     66.5668E-03    -19.2966E-03    -17.3331E-03
            1992               1     94.1253E-03     93.4450E-03    -18.1065E-03    -16.2490E-03
            1993               1     119.836E-03     119.401E-03    -17.0378E-03    -16.0956E-03
            1994               1     142.939E-03     142.389E-03    -13.3636E-03    -13.0613E-03
            1995               1     167.313E-03     164.687E-03    -7.80679E-03    -8.56477E-03
            1996               1     35.9502E-03     36.0907E-03    -11.3288E-03    -12.5399E-03
            1997               1     27.3774E-03     28.1098E-03    -15.3498E-03    -16.1142E-03
            1998               1     44.7535E-03     43.4449E-03    -17.7935E-03    -17.7816E-03
            1999               1     70.2902E-03     68.6507E-03    -18.9641E-03    -18.5053E-03
            2000               1     96.9318E-03     95.3202E-03    -19.1635E-03    -18.1287E-03
            2001               1     122.051E-03     120.977E-03    -17.0754E-03    -16.1763E-03
            2002               1     148.326E-03     146.509E-03    -14.0860E-03    -13.6668E-03
            2003               1     173.461E-03     170.418E-03    -9.17498E-03    -8.73903E-03
            2004               1     38.8839E-03     39.1330E-03    -11.8791E-03    -12.1421E-03
            2005               1     26.6904E-03     27.9383E-03    -15.1005E-03    -15.9641E-03
            2006               1     43.9674E-03     43.7493E-03    -17.8475E-03    -18.6586E-03
            2007               1     70.3009E-03     69.0823E-03    -19.2634E-03    -19.3493E-03
            2008               1     97.6314E-03     96.6527E-03    -19.1039E-03    -19.0219E-03
            2009               1     125.593E-03     124.165E-03    -17.6827E-03    -16.9014E-03
            2010               1     151.850E-03     149.522E-03    -14.1546E-03    -13.4073E-03
            2011               1     178.679E-03     176.160E-03    -9.22916E-03    -8.89916E-03
            2012               1     42.3653E-03     42.7565E-03    -11.3124E-03    -11.7336E-03
            2013               1     27.4913E-03     28.4551E-03    -15.3465E-03    -16.0811E-03
            2014               1     42.2136E-03     42.4156E-03    -17.8273E-03    -19.0217E-03
            2015               1     69.7787E-03     69.7706E-03    -19.3852E-03    -20.5827E-03
            2016               1     98.5358E-03     97.8400E-03    -19.3151E-03    -19.5575E-03
            2017               1     127.408E-03     126.309E-03    -17.9734E-03    -17.7927E-03
            2018               1     156.173E-03     154.800E-03    -14.6655E-03    -13.6166E-03
            2019               1     185.273E-03     180.928E-03    -9.29937E-03    -8.42668E-03
            2020               1     46.2533E-03     45.8240E-03    -11.4404E-03    -10.9409E-03
            2021               1     27.4424E-03     29.0242E-03    -14.9251E-03    -15.7430E-03
            2022               1     40.3245E-03     40.7732E-03    -17.3695E-03    -18.9085E-03
            2023               1     67.6906E-03     67.3371E-03    -19.2037E-03    -21.1752E-03
            2024               1     99.4578E-03     100.190E-03    -20.0069E-03    -21.8334E-03
            2025               1     129.152E-03     129.307E-03    -18.1568E-03    -17.7500E-03
            2026               1     159.971E-03     157.694E-03    -15.4104E-03    -14.5045E-03
            2027               1     189.455E-03     187.695E-03    -11.2574E-03    -9.65818E-03
            2028               1     48.7080E-03     50.3699E-03    -10.0521E-03    -9.47114E-03
            2029               1     26.9500E-03     27.6818E-03    -13.6625E-03    -13.9556E-03
            2030               1     37.4688E-03     37.6749E-03    -16.9116E-03    -18.8442E-03
            2031               1     66.4335E-03     65.8622E-03    -18.1277E-03    -20.6406E-03
            2032               1     95.9186E-03     95.0776E-03    -19.1664E-03    -22.2725E-03
            2033               1     132.145E-03     133.694E-03    -20.6659E-03    -22.9256E-03
            2034               1     163.098E-03     164.738E-03    -17.1326E-03    -14.6985E-03
            2035               1     195.670E-03     190.167E-03    -11.4992E-03    -9.34002E-03
            2036               1     54.9141E-03     54.0590E-03    -9.61665E-03    -7.78795E-03
            2037               1     28.3129E-03     30.4929E-03    -13.8456E-03    -13.8678E-03
            2038               1     33.2184E-03     32.6245E-03    -13.7015E-03    -15.4440E-03
            2039               1     60.2610E-03     58.0889E-03    -15.2410E-03    -18.1895E-03
            2040               1     93.9590E-03     90.4782E-03    -17.3235E-03    -20.0583E-03
            2041               1     125.759E-03     121.604E-03    -20.5905E-03    -24.6717E-03
            2042               1     170.413E-03     170.421E-03    -24.5447E-03    -27.1688E-03
            2043               1     202.693E-03     206.642E-03    -18.8144E-03    -14.5853E-03
            2044               1     54.7232E-03     57.0704E-03    -12.7249E-03    -10.2288E-03
            2045               1     19.2370E-03     20.6622E-03    -8.97351E-03    -9.20441E-03
            2046               1     24.4574E-03     22.8540E-03    -8.01509E-03    -9.03309E-03
            2047               1     54.5752E-03     49.3790E-03    -9.19895E-03    -10.1845E-03
            2048               1     86.0426E-03     77.4871E-03    -13.0976E-03    -14.8944E-03
            2049               1     120.905E-03     108.286E-03    -16.9022E-03    -18.1830E-03
            2050               1     159.608E-03     142.237E-03    -27.9829E-03    -31.7449E-03
            2051               1     222.420E-03     198.448E-03    -38.8345E-03    -39.4309E-03
            2052               1     40.3654E-03     28.5469E-03    -18.3588E-03    -15.9646E-03
            2053               1     46.4803E-03     44.1748E-03    -26.8087E-03    -23.9960E-03
            2054               1     55.8542E-03     59.7782E-03    -26.7714E-03    -25.4962E-03
            2055               1     77.7549E-03     80.4671E-03    -26.0389E-03    -24.1364E-03
            2056               1     101.960E-03     101.981E-03    -20.2986E-03    -18.9366E-03
            2057               1     131.125E-03     127.774E-03    -13.8899E-03    -12.3301E-03
            2058               1     158.647E-03     151.715E-03     1.34364E-03     2.86990E-03
            2059               1     199.331E-03     193.920E-03     20.9305E-03     16.9175E-03
            2060               1     34.6892E-03     44.7612E-03    -13.5322E-03    -17.5856E-03
            2061               1     40.0605E-03     35.1759E-03    -22.7801E-03    -19.6705E-03
            2062               1     53.1732E-03     50.7925E-03    -23.2378E-03    -19.4721E-03
            2063               1     78.3493E-03     78.0678E-03    -21.3000E-03    -18.3219E-03
            2064               1     110.164E-03     110.616E-03    -18.1197E-03    -14.5279E-03
            2065               1     140.319E-03     140.867E-03    -11.7494E-03    -8.86768E-03
            2066               1     179.471E-03     183.777E-03    -3.89424E-03    -3.45377E-03
            2067               1     212.255E-03     211.028E-03    -818.160E-06    -4.75894E-03
            2068               1     42.3314E-03     42.3803E-03    -11.5082E-03    -14.5286E-03
            2069               1     31.1325E-03     32.2458E-03    -17.1912E-03    -18.5961E-03
            2070               1     53.0635E-03     48.5848E-03    -20.9812E-03    -18.6287E-03
            2071               1     82.4611E-03     80.9489E-03    -19.7631E-03    -16.6562E-03
            2072               1     115.240E-03     115.580E-03    -18.0557E-03    -15.3910E-03
            2073               1     152.214E-03     155.691E-03    -13.9480E-03    -11.5687E-03
            2074               1     185.566E-03     187.313E-03    -12.1801E-03    -13.1133E-03
            2075               1     213.521E-03     213.591E-03    -7.91767E-03    -8.90411E-03
            2076               1     44.1254E-03     47.4108E-03    -10.6280E-03    -12.1125E-03
            2077               1     27.8533E-03     28.5439E-03    -15.4819E-03    -16.4370E-03
            2078               1     51.1413E-03     48.1720E-03    -17.9411E-03    -18.4067E-03
            2079               1     84.9679E-03     83.0909E-03    -20.0384E-03    -19.0299E-03
            2080               1     120.296E-03     121.326E-03    -18.0733E-03    -16.4685E-03
            2081               1     156.300E-03     157.773E-03    -18.0010E-03    -17.3692E-03
            2082               1     189.205E-03     190.602E-03    -14.1687E-03    -13.1735E-03
            2083               1     223.308E-03     219.119E-03    -7.78527E-03    -8.06011E-03
            2084               1     49.1935E-03     49.0198E-03    -10.1639E-03    -10.6449E-03
            2085               1     25.1940E-03     27.0160E-03    -13.8364E-03    -15.0873E-03
            2086               1     48.6011E-03     46.9438E-03    -17.1182E-03    -18.2295E-03
            2087               1     83.8213E-03     82.1529E-03    -18.4125E-03    -19.8763E-03
            2088               1     123.111E-03     124.075E-03    -20.6882E-03    -21.7701E-03
            2089               1     157.939E-03     159.913E-03    -18.0880E-03    -17.0813E-03
            2090               1     194.624E-03     193.353E-03    -15.9727E-03    -14.9749E-03
            2091               1     227.997E-03     226.421E-03    -12.3166E-03    -10.1141E-03
            2092               1     51.1830E-03     53.4715E-03    -8.77212E-03    -8.14250E-03
            2093               1     23.5848E-03     24.5177E-03    -12.3164E-03    -12.9306E-03
            2094               1     44.2760E-03     42.4791E-03    -15.3837E-03    -17.8094E-03
            2095               1     82.8863E-03     81.1842E-03    -17.9549E-03    -20.5188E-03
            2096               1     118.509E-03     117.374E-03    -19.0202E-03    -22.2685E-03
            2097               1     161.991E-03     164.147E-03    -22.0302E-03    -24.2480E-03
            2098               1     197.399E-03     200.093E-03    -18.3236E-03    -15.1539E-03
            2099               1     234.224E-03     228.555E-03    -12.2478E-03    -9.41214E-03
            2100               1     56.9400E-03     56.8228E-03    -8.21891E-03    -6.05123E-03
            2101               1     23.2084E-03     26.1392E-03    -11.5363E-03    -12.1042E-03
            2102               1     40.1052E-03     38.1170E-03    -12.0955E-03    -14.4345E-03
            2103               1     75.3084E-03     71.6953E-03    -14.0045E-03    -17.5486E-03
            2104               1     116.390E-03     111.898E-03    -17.5734E-03    -20.6052E-03
            2105               1     153.291E-03     148.361E-03    -21.8123E-03    -26.3220E-03
            2106               1     205.357E-03     205.473E-03    -27.3261E-03    -29.9412E-03
            2107               1     242.603E-03     246.941E-03    -21.3060E-03    -15.7911E-03
            2108               1     55.3958E-03     57.2158E-03    -10.6622E-03    -8.01845E-03
            2109               1     13.1418E-03     14.7468E-03    -6.08533E-03    -6.67442E-03
            2110               1     31.4605E-03     28.5438E-03    -5.22635E-03    -6.59511E-03
            2111               1     69.3353E-03     62.6600E-03    -7.41570E-03    -8.63952E-03
            2112               1     106.544E-03     95.8079E-03    -12.4527E-03    -14.5323E-03
            2113               1     147.368E-03     132.202E-03    -17.8327E-03    -19.2617E-03
            2114               1     191.542E-03     171.031E-03    -31.5801E-03    -35.7170E-03
            2115               1     263.526E-03     236.317E-03    -45.2496E-03    -45.4045E-03
            2116               1     8.79936E-15     7.64427E-15    -1.34123E-15    -947.040E-18
            2117               1     3.06073E-15     3.08226E-15    -1.45669E-15    -1.59434E-15
            2118               1     4.09506E-15     4.11699E-15    -2.29036E-15    -2.28618E-15
            2119               1     4.25216E-15     4.72611E-15    -2.43874E-15    -2.70987E-15
            2120               1     3.44660E-15     2.92823E-15    -1.94607E-15    -1.67702E-15
            2121               1     4.47786E-15     4.36597E-15     1.13296E-15     1.05996E-15
            2122               1     5.72293E-15     6.08102E-15     3.25766E-15     3.46414E-15
            2123               1     1.74980E-15     1.19907E-15     361.416E-18     449.013E-18
            2124               1     457.435E-18     813.404E-18    -212.589E-18    -168.790E-18
            2125               1     2.61942E-15     2.11484E-15     1.48499E-15     1.18466E-15
            2126               1     1.57942E-15     1.25602E-15     839.926E-18     685.587E-18
            2127               1     1.05605E-15     1.21854E-15    -306.592E-18     306.592E-18
            2128               1     2.23597E-15     2.06653E-15     1.28849E-15     1.19047E-15
            2129               1     5.33405E-15     5.56937E-15    -2.00447E-15    -2.28604E-15
            2130               1     9.56212E-15     9.62816E-15    -5.51330E-15    -5.54667E-15
            2131               1     4.78013E-15     4.92019E-15    -1.54294E-15    -1.60343E-15
            2132               1     5.23899E-15     4.90766E-15    -2.94376E-15    -2.77691E-15
            2133               1     3.59118E-15     3.36836E-15    -1.94130E-15    -1.87248E-15
            2134               1     1.52880E-15     1.47573E-15    -737.729E-18    -787.785E-18
            2135               1     4.66726E-15     4.63926E-15    -2.68112E-15    -2.65818E-15
            2136               1     2.78244E-15     3.19066E-15    -1.59523E-15    -1.83717E-15
            2137               1     4.31396E-15     3.48488E-15    -2.41713E-15    -1.96872E-15
            2138               1     4.30033E-15     5.03280E-15    -2.45274E-15    -2.88656E-15
            2139               1     3.10451E-15     2.63677E-15    -1.73065E-15    -1.41572E-15
            3835               1     61.5669E-03     67.3962E-03     13.8250E-03     10.3202E-03
            3836               1     16.3066E-03     19.3173E-03     9.06600E-03     9.68895E-03
            3837               1     42.5520E-03     35.9121E-03     8.26575E-03     9.76160E-03
            3838               1     85.3720E-03     74.7373E-03     11.6216E-03     12.5072E-03
            3839               1     126.707E-03     112.576E-03     17.0466E-03     19.0641E-03
            3840               1     171.954E-03     153.657E-03     23.8455E-03     25.1786E-03
            3841               1     220.402E-03     196.587E-03     39.0889E-03     43.8773E-03
            3842               1     301.757E-03     269.738E-03     53.5736E-03     54.1969E-03
            3843               1     64.4334E-03     63.6176E-03     10.4569E-03     9.46971E-03
            3844               1     29.4014E-03     32.9290E-03     15.8101E-03     16.6633E-03
            3845               1     52.4407E-03     48.0700E-03     16.9917E-03     18.9204E-03
            3846               1     91.8654E-03     86.1111E-03     18.8521E-03     21.8724E-03
            3847               1     137.576E-03     131.542E-03     23.6223E-03     25.8246E-03
            3848               1     177.542E-03     172.117E-03     27.5105E-03     32.0079E-03
            3849               1     235.556E-03     236.385E-03     34.2455E-03     37.4611E-03
            3850               1     274.693E-03     280.749E-03     26.8235E-03     20.2509E-03
            3851               1     55.4495E-03     61.4084E-03     11.7991E-03     12.8334E-03
            3852               1     31.7688E-03     33.7848E-03     17.3055E-03     18.7179E-03
            3853               1     57.7003E-03     54.2259E-03     21.6722E-03     23.6389E-03
            3854               1     98.4264E-03     94.7734E-03     24.2634E-03     24.9494E-03
            3855               1     138.064E-03     137.540E-03     23.9211E-03     25.5447E-03
            3856               1     186.521E-03     191.121E-03     28.1234E-03     30.0490E-03
            3857               1     223.941E-03     229.563E-03     22.8405E-03     19.1069E-03
            3858               1     263.518E-03     257.443E-03     14.2374E-03     11.8644E-03
            3859               1     54.2582E-03     54.2225E-03     14.0193E-03     17.1164E-03
            3860               1     38.3711E-03     41.8973E-03     21.4616E-03     23.8237E-03
            3861               1     62.4396E-03     58.5142E-03     25.9494E-03     24.7361E-03
            3862               1     96.3844E-03     95.0549E-03     25.5812E-03     24.2732E-03
            3863               1     137.838E-03     140.254E-03     25.2747E-03     24.2998E-03
            3864               1     179.971E-03     186.272E-03     20.1450E-03     17.2174E-03
            3865               1     220.056E-03     222.952E-03     19.2069E-03     19.0795E-03
            3866               1     251.344E-03     253.350E-03     14.1032E-03     12.8511E-03
            3867               1     44.4457E-03     56.9293E-03     17.0009E-03     21.7194E-03
            3868               1     50.4216E-03     46.0314E-03     28.7467E-03     25.7872E-03
            3869               1     64.2283E-03     62.8743E-03     29.6091E-03     26.6349E-03
            3870               1     94.2557E-03     96.1519E-03     27.9990E-03     26.1976E-03
            3871               1     130.983E-03     133.589E-03     24.3616E-03     20.8920E-03
            3872               1     166.750E-03     169.766E-03     17.8722E-03     14.7028E-03
            3873               1     211.501E-03     219.199E-03     7.99675E-03     6.51023E-03
            3874               1     249.721E-03     247.671E-03     3.32647E-03     6.65872E-03
            3875               1     50.7782E-03     36.4704E-03     23.2903E-03     20.2826E-03
            3876               1     58.8841E-03     56.0199E-03     33.9015E-03     31.0107E-03
            3877               1     69.4552E-03     75.0404E-03     34.5143E-03     33.6606E-03
            3878               1     93.8015E-03     99.3777E-03     33.6908E-03     31.9709E-03
            3879               1     121.759E-03     125.613E-03     27.4859E-03     26.3410E-03
            3880               1     154.824E-03     154.982E-03     19.3986E-03     17.3902E-03
            3881               1     185.434E-03     180.943E-03     1.38974E-03    -638.552E-06
            3882               1     230.140E-03     227.483E-03    -22.3831E-03    -17.5048E-03
            3883               1     45.7199E-03     47.2392E-03     11.5968E-03     11.5180E-03
            3884               1     20.5781E-03     20.8971E-03     11.5968E-03     11.5180E-03
            3885               1     37.8895E-03     36.3435E-03     11.5968E-03     11.5180E-03
            3886               1     71.6015E-03     69.8857E-03     11.5968E-03     11.5180E-03
            3887               1     107.224E-03     105.481E-03     11.5968E-03     11.5180E-03
            3888               1     143.339E-03     141.589E-03     11.5968E-03     11.5180E-03
            3889               1     179.651E-03     177.898E-03     11.5968E-03     11.5180E-03
            3890               1     216.059E-03     214.305E-03     11.5968E-03     11.5180E-03
            3891               1     51.4534E-03     38.5030E-03    -11.2957E-03    -11.1434E-03
            3892               1     40.8137E-03     38.1805E-03    -21.9897E-03    -21.9275E-03
            3893               1     46.9643E-03     57.0662E-03    -22.3865E-03    -22.5116E-03
            3894               1     76.3511E-03     89.6765E-03    -23.1412E-03    -23.0071E-03
            3895               1     111.588E-03     126.071E-03    -22.7558E-03    -22.8372E-03
            3896               1     147.429E-03     162.249E-03    -21.0368E-03    -21.0421E-03
            3897               1     185.115E-03     200.147E-03    -16.3571E-03    -16.1663E-03
            3898               1     217.130E-03     231.511E-03     11.1171E-03     10.6519E-03
            3899               1     47.7379E-03     64.3945E-03    -14.3460E-03    -14.8500E-03
            3900               1     22.2618E-03     25.1771E-03    -12.2958E-03    -12.1447E-03
            3901               1     45.8611E-03     28.7861E-03    -9.41924E-03    -9.41094E-03
            3902               1     84.0224E-03     65.4701E-03    -9.36675E-03    -9.39884E-03
            3903               1     122.462E-03     103.621E-03    -9.65043E-03    -9.65641E-03
            3904               1     161.835E-03     142.967E-03    -10.9197E-03    -10.7708E-03
            3905               1     199.786E-03     181.017E-03    -17.6406E-03    -18.0469E-03
            3906               1     250.681E-03     232.245E-03    -37.4023E-03    -36.5312E-03
            3907               1     48.5803E-03     33.8454E-03    -17.6419E-03    -15.7476E-03
            3908               1     50.6854E-03     47.4805E-03    -29.0551E-03    -26.5343E-03
            3909               1     62.0418E-03     67.2342E-03    -28.9935E-03    -28.4531E-03
            3910               1     92.8134E-03     98.6130E-03    -29.3896E-03    -28.5127E-03
            3911               1     123.452E-03     127.438E-03    -21.9671E-03    -20.7566E-03
            3912               1     160.799E-03     161.219E-03    -15.3143E-03    -13.6132E-03
            3913               1     195.575E-03     190.796E-03     3.55074E-03     6.47313E-03
            3914               1     247.936E-03     241.731E-03     27.6852E-03     23.8741E-03
            3915               1     47.6334E-03     57.6144E-03    -13.7868E-03    -17.2411E-03
            3916               1     39.0830E-03     36.4675E-03    -22.0472E-03    -19.9716E-03
            3917               1     57.0265E-03     56.3111E-03    -23.2202E-03    -21.1841E-03
            3918               1     90.8317E-03     91.5648E-03    -21.3644E-03    -20.4797E-03
            3919               1     134.543E-03     137.717E-03    -19.8982E-03    -18.3953E-03
            3920               1     172.720E-03     176.461E-03    -12.2500E-03    -8.11808E-03
            3921               1     220.799E-03     227.877E-03    -4.24264E-03    -2.25929E-03
            3922               1     259.576E-03     261.232E-03    -2.47902E-03    -4.90695E-03
            3923               1     54.3463E-03     56.2415E-03    -8.95672E-03    -11.4513E-03
            3924               1     27.7587E-03     30.7437E-03    -14.6832E-03    -16.4882E-03
            3925               1     53.0329E-03     48.1906E-03    -18.4470E-03    -18.1591E-03
            3926               1     94.7791E-03     92.8199E-03    -18.1723E-03    -17.9101E-03
            3927               1     135.363E-03     134.526E-03    -17.8860E-03    -18.1731E-03
            3928               1     186.473E-03     193.410E-03    -18.1555E-03    -18.3962E-03
            3929               1     227.228E-03     235.070E-03    -16.4292E-03    -14.4246E-03
            3930               1     261.465E-03     259.487E-03    -11.0481E-03    -8.99112E-03
            3931               1     58.6212E-03     61.2024E-03    -7.43423E-03    -6.51354E-03
            3932               1     21.6327E-03     25.4083E-03    -11.1295E-03    -12.4110E-03
            3933               1     50.1194E-03     44.6673E-03    -11.3936E-03    -13.4293E-03
            3934               1     90.5551E-03     84.1101E-03    -14.0695E-03    -15.2907E-03
            3935               1     137.429E-03     133.040E-03    -15.8711E-03    -17.0288E-03
            3936               1     179.573E-03     175.952E-03    -22.2822E-03    -26.4504E-03
            3937               1     234.064E-03     237.177E-03    -28.0881E-03    -30.8141E-03
            3938               1     273.522E-03     279.215E-03    -20.8795E-03    -15.9659E-03
            3939               1     55.0298E-03     59.3671E-03    -9.03134E-03    -7.02542E-03
            3940               1     6.58969E-03     10.1258E-03    -3.32989E-03    -4.35945E-03
            3941               1     43.2433E-03     35.8163E-03    -3.32706E-03    -4.38141E-03
            3942               1     87.0057E-03     76.9341E-03    -4.82413E-03    -5.50968E-03
            3943               1     128.161E-03     115.670E-03    -12.0495E-03    -13.4424E-03
            3944               1     172.045E-03     156.466E-03    -17.5223E-03    -18.7197E-03
            3945               1     219.251E-03     198.263E-03    -34.3740E-03    -39.0556E-03
            3946               1     296.335E-03     268.228E-03    -50.9369E-03    -50.5167E-03
            5375               1     4.70743E-15     4.62442E-15     1.37676E-15     1.38823E-15
            5376               1     4.36453E-15     4.44179E-15     1.04410E-15     1.05348E-15
            5377               1     4.42981E-15     4.65655E-15     1.02406E-15     978.176E-18
            5378               1     5.64840E-15     5.89702E-15     2.30726E-15     2.36462E-15
            5379               1     3.90426E-15     3.86902E-15    -1.45199E-15    -1.59903E-15
            5380               1     5.92011E-15     5.56664E-15    -2.45505E-15    -2.31218E-15
            5381               1     4.65600E-15     4.72687E-15    -1.36551E-15    -1.49482E-15
            5382               1     4.78148E-15     5.23128E-15    -1.68075E-15    -1.75166E-15
            5383               1     1.62653E-15     1.35677E-15    -936.314E-18    -779.889E-18
            5384               1     3.31677E-15     3.46594E-15    -1.91233E-15    -1.99680E-15
            5385               1     2.43888E-15     2.27741E-15    -1.34197E-15    -1.20849E-15
            5386               1     2.23471E-15     2.15116E-15     491.323E-18     462.123E-18
            5387               1     2.20760E-15     2.18050E-15     267.784E-18     304.283E-18
            5388               1     701.145E-18     715.337E-18    -257.877E-18    -314.190E-18
            5389               1     1.42533E-15     1.06683E-15     673.744E-18     470.391E-18
            5390               1     2.45861E-15     2.77794E-15     854.898E-18     1.05199E-15
            5391               1     3.64712E-15     3.31363E-15     2.10391E-15     1.90056E-15
            5392               1     3.36002E-15     3.61842E-15     1.92976E-15     2.07471E-15
            5393               1     2.00548E-15     2.00855E-15     38.2868E-18    -109.795E-18
            5394               1     4.73575E-15     4.75115E-15    -1.44343E-15    -1.51225E-15
            5395               1     2.07238E-15     2.00584E-15     151.583E-18     229.795E-18
            5396               1     4.34925E-15     4.22277E-15     854.973E-18     861.230E-18
            5397               1     4.56936E-15     4.64563E-15     1.31292E-15     1.35672E-15
            5398               1     3.60433E-15     3.67286E-15     2.07777E-15     2.11739E-15
            5399               1     2.14612E-15     1.98950E-15    -201.564E-18    -370.503E-18
            5400               1     873.672E-18     785.546E-18    -462.272E-18    -443.501E-18
            5401               1     2.13453E-15     2.27919E-15    -509.125E-18    -587.337E-18
            5402               1     866.592E-18     980.111E-18     485.289E-18     563.501E-18
            5403               1     4.20924E-15     4.00997E-15     611.174E-18     532.961E-18
            5404               1     3.12483E-15     3.00160E-15    -1.36350E-15    -1.30615E-15
            5405               1     2.54753E-15     2.73718E-15    -1.47076E-15    -1.58026E-15
            5406               1     1.78730E-15     1.58592E-15    -898.846E-18    -626.667E-18
            5407               1     2.61975E-15     2.84984E-15    -1.04596E-15    -956.276E-18
            5408               1     1.04138E-15     982.724E-18     475.531E-18     525.587E-18
            5409               1     278.354E-18     427.477E-18    -78.2868E-18    -231.583E-18
            5410               1     1.56411E-15     1.49254E-15     750.243E-18     775.271E-18
            5411               1     2.00420E-15     2.14053E-15     301.155E-18     270.913E-18
            5412               1     2.51933E-15     2.28318E-15    -912.924E-18    -612.589E-18
            5413               1     2.15265E-15     1.84502E-15     1.23747E-15     1.05080E-15
            5414               1     3.42929E-15     3.18580E-15     1.97728E-15     1.83650E-15
            5415               1     4.13902E-15     3.32740E-15     2.37207E-15     1.91844E-15
            5416               1     3.97055E-15     4.37769E-15     2.29013E-15     2.52477E-15
            5417               1     2.99947E-15     2.74263E-15     1.73013E-15     1.58309E-15
            5418               1     2.26499E-15     2.59112E-15     1.27769E-15     1.48730E-15
            5419               1     3.72000E-15     3.55031E-15     2.14659E-15     2.04857E-15
            5420               1     1.55154E-15     1.78278E-15     799.703E-18     916.500E-18
            5421               1     3.09475E-15     2.93802E-15     1.76939E-15     1.66302E-15
            5422               1     3.42899E-15     3.91461E-15     1.96253E-15     2.23263E-15
            5423               1     3.78522E-15     3.66535E-15     2.17706E-15     2.11345E-15
            5424               1     3.05517E-15     3.26580E-15     1.74846E-15     1.87464E-15
            5425               1     4.28233E-15     4.15929E-15     2.46726E-15     2.39531E-15
            5426               1     2.46461E-15     2.49886E-15     1.42026E-15     1.44008E-15
            5427               1     5.92296E-15     6.01420E-15     3.40894E-15     3.45587E-15
            5428               1     4.31059E-15     4.33665E-15     2.47218E-15     2.48574E-15
            5429               1     2.67861E-15     2.63445E-15     1.53855E-15     1.51248E-15
            5430               1     3.72344E-15     3.62016E-15     2.13356E-15     2.06160E-15
            6229               1     64.4896E-03     69.0593E-03     16.8050E-03     13.4382E-03
            6230               1     25.7888E-03     27.8294E-03     13.1754E-03     13.1788E-03
            6231               1     31.4103E-03     29.0947E-03     11.9033E-03     13.0878E-03
            6232               1     64.6603E-03     57.7016E-03     13.6910E-03     14.6934E-03
            6233               1     99.8172E-03     89.1504E-03     17.9981E-03     20.0870E-03
            6234               1     139.202E-03     123.734E-03     22.3514E-03     23.7186E-03
            6235               1     183.352E-03     162.518E-03     34.6921E-03     39.1609E-03
            6236               1     256.372E-03     227.173E-03     46.4064E-03     47.5253E-03
            6237               1     64.4605E-03     62.7477E-03     12.8612E-03     10.9599E-03
            6238               1     36.2961E-03     38.5119E-03     18.5382E-03     18.3237E-03
            6239               1     42.4959E-03     41.4240E-03     18.7554E-03     20.5372E-03
            6240               1     71.4184E-03     68.6627E-03     20.3562E-03     23.7498E-03
            6241               1     109.211E-03     104.559E-03     23.1199E-03     26.0484E-03
            6242               1     144.241E-03     138.964E-03     26.5784E-03     31.2898E-03
            6243               1     194.960E-03     194.388E-03     31.1204E-03     34.3238E-03
            6244               1     230.936E-03     235.811E-03     23.8918E-03     18.8733E-03
            6245               1     55.9727E-03     58.5140E-03     12.9190E-03     12.4881E-03
            6246               1     34.4404E-03     35.6145E-03     18.1152E-03     18.6849E-03
            6247               1     47.1118E-03     47.3979E-03     22.1647E-03     24.3885E-03
            6248               1     79.2262E-03     78.2704E-03     24.1513E-03     26.8254E-03
            6249               1     111.037E-03     109.928E-03     25.1285E-03     28.6713E-03
            6250               1     151.682E-03     153.085E-03     27.1605E-03     29.6691E-03
            6251               1     185.498E-03     187.454E-03     22.7711E-03     19.7609E-03
            6252               1     221.787E-03     215.152E-03     15.3031E-03     12.4799E-03
            6253               1     53.0851E-03     52.6332E-03     14.5903E-03     14.4557E-03
            6254               1     34.5787E-03     36.8805E-03     19.1639E-03     20.3608E-03
            6255               1     50.6044E-03     51.4367E-03     22.9840E-03     24.8005E-03
            6256               1     80.2982E-03     79.8482E-03     25.0748E-03     27.3145E-03
            6257               1     115.712E-03     116.322E-03     26.6816E-03     28.5054E-03
            6258               1     147.404E-03     147.863E-03     24.2279E-03     23.5682E-03
            6259               1     181.517E-03     178.704E-03     20.6660E-03     19.3064E-03
            6260               1     213.381E-03     211.595E-03     15.0611E-03     12.8400E-03
            6261               1     47.6682E-03     49.1286E-03     14.4005E-03     15.0789E-03
            6262               1     35.2752E-03     37.0041E-03     19.9375E-03     21.1557E-03
            6263               1     52.6802E-03     52.7034E-03     23.0849E-03     24.5922E-03
            6264               1     83.1624E-03     82.9899E-03     26.0019E-03     26.9838E-03
            6265               1     113.716E-03     113.273E-03     25.3815E-03     25.4277E-03
            6266               1     145.819E-03     144.536E-03     24.2368E-03     23.6099E-03
            6267               1     175.777E-03     174.987E-03     19.8375E-03     18.3300E-03
            6268               1     207.451E-03     202.553E-03     12.4519E-03     11.3166E-03
            6269               1     44.1916E-03     44.4993E-03     14.8430E-03     16.2528E-03
            6270               1     34.7981E-03     36.5779E-03     19.7082E-03     21.0282E-03
            6271               1     55.0169E-03     54.5452E-03     24.0197E-03     24.5341E-03
            6272               1     83.1058E-03     81.5179E-03     25.0603E-03     24.8081E-03
            6273               1     113.026E-03     111.913E-03     25.9290E-03     25.0876E-03
            6274               1     141.803E-03     141.562E-03     23.1450E-03     21.8666E-03
            6275               1     171.115E-03     168.762E-03     18.8609E-03     18.0206E-03
            6276               1     198.525E-03     196.455E-03     12.8006E-03     12.0477E-03
            6277               1     39.1629E-03     42.4310E-03     15.0726E-03     16.7567E-03
            6278               1     36.8385E-03     37.8298E-03     20.7838E-03     21.7335E-03
            6279               1     56.7035E-03     54.1957E-03     23.8815E-03     23.7239E-03
            6280               1     82.3685E-03     79.6705E-03     26.0646E-03     24.0949E-03
            6281               1     110.046E-03     109.698E-03     24.2656E-03     22.1525E-03
            6282               1     138.377E-03     138.204E-03     22.8410E-03     21.6761E-03
            6283               1     164.238E-03     164.468E-03     18.2922E-03     17.7252E-03
            6284               1     191.953E-03     188.290E-03     10.7562E-03     11.3530E-03
            6285               1     37.2157E-03     38.5286E-03     15.0877E-03     18.4249E-03
            6286               1     40.1669E-03     40.5723E-03     22.0578E-03     23.2477E-03
            6287               1     58.8619E-03     54.1708E-03     26.6449E-03     23.7389E-03
            6288               1     79.7444E-03     77.7141E-03     25.7400E-03     22.2678E-03
            6289               1     104.467E-03     104.292E-03     23.6656E-03     20.9859E-03
            6290               1     133.110E-03     135.329E-03     19.8557E-03     17.8745E-03
            6291               1     159.756E-03     160.533E-03     16.9574E-03     17.7092E-03
            6292               1     180.636E-03     181.235E-03     10.7672E-03     11.6301E-03
            6293               1     32.4346E-03     41.3562E-03     17.0247E-03     21.0217E-03
            6294               1     49.2124E-03     43.6480E-03     27.8598E-03     24.0065E-03
            6295               1     58.7298E-03     56.0393E-03     28.3933E-03     24.2311E-03
            6296               1     75.8455E-03     75.9056E-03     26.3358E-03     23.3889E-03
            6297               1     99.2623E-03     99.9946E-03     23.6587E-03     20.2836E-03
            6298               1     121.962E-03     123.400E-03     17.4476E-03     15.4002E-03
            6299               1     151.388E-03     155.711E-03     9.99898E-03     10.3527E-03
            6300               1     176.819E-03     174.646E-03     5.32905E-03     8.60949E-03
            6301               1     41.9196E-03     36.7022E-03     22.9639E-03     19.5373E-03
            6302               1     53.7130E-03     52.4496E-03     30.9880E-03     27.7619E-03
            6303               1     59.7612E-03     64.1428E-03     30.2567E-03     28.9584E-03
            6304               1     75.5940E-03     78.9660E-03     30.0172E-03     28.0535E-03
            6305               1     92.1540E-03     94.0460E-03     24.6650E-03     23.5868E-03
            6306               1     113.292E-03     112.530E-03     18.9415E-03     17.6452E-03
            6307               1     131.946E-03     129.276E-03     5.44312E-03     4.80496E-03
            6308               1     158.419E-03     158.977E-03    -12.8636E-03    -8.54497E-03
            6309               1     55.2090E-03     61.6119E-03     17.8315E-03     14.4548E-03
            6310               1     29.7992E-03     31.7331E-03     16.1441E-03     15.6093E-03
            6311               1     29.9256E-03     28.5556E-03     14.9622E-03     15.7329E-03
            6312               1     49.8776E-03     43.9733E-03     16.4121E-03     16.9201E-03
            6313               1     73.3121E-03     65.0263E-03     19.1092E-03     20.6703E-03
            6314               1     100.691E-03     88.4417E-03     21.7831E-03     22.7064E-03
            6315               1     132.893E-03     116.921E-03     29.8172E-03     33.4349E-03
            6316               1     187.731E-03     163.991E-03     36.5280E-03     38.1803E-03
            6317               1     54.0394E-03     51.4920E-03     13.5551E-03     12.6368E-03
            6318               1     37.9512E-03     38.8717E-03     20.0918E-03     19.2708E-03
            6319               1     39.3621E-03     38.4161E-03     20.3617E-03     21.1528E-03
            6320               1     55.7090E-03     54.0102E-03     21.3528E-03     23.6896E-03
            6321               1     80.3863E-03     76.5323E-03     23.2097E-03     25.0876E-03
            6322               1     103.758E-03     99.7638E-03     25.0566E-03     28.6415E-03
            6323               1     139.547E-03     138.776E-03     27.6002E-03     30.3286E-03
            6324               1     163.912E-03     168.258E-03     20.7980E-03     17.1627E-03
            6325               1     44.8328E-03     47.8406E-03     13.2804E-03     13.4775E-03
            6326               1     35.0020E-03     36.1784E-03     18.7723E-03     19.4454E-03
            6327               1     43.0574E-03     43.7559E-03     22.9114E-03     24.2802E-03
            6328               1     61.7916E-03     61.1546E-03     24.4161E-03     26.0658E-03
            6329               1     81.4580E-03     80.8228E-03     24.8847E-03     27.3904E-03
            6330               1     108.498E-03     109.307E-03     25.9430E-03     27.7033E-03
            6331               1     130.461E-03     131.691E-03     21.8022E-03     19.4189E-03
            6332               1     155.607E-03     149.899E-03     14.5471E-03     12.3383E-03
            6333               1     42.5572E-03     42.1880E-03     14.6707E-03     14.8392E-03
            6334               1     34.5922E-03     36.9101E-03     19.4339E-03     20.5896E-03
            6335               1     44.6014E-03     46.1684E-03     23.1336E-03     24.6211E-03
            6336               1     62.5980E-03     62.7710E-03     25.2398E-03     26.7779E-03
            6337               1     84.7232E-03     85.1488E-03     26.2790E-03     27.4466E-03
            6338               1     104.295E-03     104.349E-03     23.9967E-03     23.2529E-03
            6339               1     126.410E-03     123.834E-03     20.2704E-03     19.0429E-03
            6340               1     146.761E-03     145.783E-03     14.3436E-03     12.5921E-03
            6341               1     37.4827E-03     39.2106E-03     14.4742E-03     15.2745E-03
            6342               1     34.8673E-03     36.8107E-03     19.8993E-03     21.1345E-03
            6343               1     46.1563E-03     47.1135E-03     23.2407E-03     24.5825E-03
            6344               1     64.5099E-03     64.8512E-03     25.8449E-03     26.6212E-03
            6345               1     82.8357E-03     82.4631E-03     25.4727E-03     25.3710E-03
            6346               1     102.548E-03     101.202E-03     24.0548E-03     23.3193E-03
            6347               1     120.576E-03     120.011E-03     19.6747E-03     18.2785E-03
            6348               1     140.737E-03     136.886E-03     12.5101E-03     11.4385E-03
            6349               1     34.5260E-03     35.3344E-03     14.7692E-03     16.0571E-03
            6350               1     34.5462E-03     36.5256E-03     19.7464E-03     21.0495E-03
            6351               1     47.9392E-03     48.4909E-03     23.8639E-03     24.5437E-03
            6352               1     64.4612E-03     63.5944E-03     25.2172E-03     25.1707E-03
            6353               1     82.2045E-03     81.2154E-03     25.8377E-03     25.1443E-03
            6354               1     98.7225E-03     98.3584E-03     23.3270E-03     22.1572E-03
            6355               1     116.019E-03     113.913E-03     19.0236E-03     18.0722E-03
            6356               1     131.875E-03     130.827E-03     12.7425E-03     11.9259E-03
            6357               1     30.9017E-03     33.6637E-03     14.9922E-03     16.3732E-03
            6358               1     36.1138E-03     37.5451E-03     20.5138E-03     21.5047E-03
            6359               1     49.2504E-03     48.2267E-03     23.7319E-03     23.9033E-03
            6360               1     64.3662E-03     62.6203E-03     25.8996E-03     24.6315E-03
            6361               1     79.5313E-03     79.0704E-03     24.6683E-03     23.2113E-03
            6362               1     95.6948E-03     95.1134E-03     23.0721E-03     21.9915E-03
            6363               1     109.530E-03     109.899E-03     18.6878E-03     17.9888E-03
            6364               1     125.493E-03     122.637E-03     11.4737E-03     11.6008E-03
            6365               1     29.0637E-03     31.5556E-03     14.7262E-03     17.4354E-03
            6366               1     38.8583E-03     39.5056E-03     21.4007E-03     22.4872E-03
            6367               1     51.8080E-03     48.7154E-03     25.8982E-03     23.8472E-03
            6368               1     62.2343E-03     60.6797E-03     25.4753E-03     23.0274E-03
            6369               1     75.4417E-03     75.6803E-03     23.9094E-03     22.2668E-03
            6370               1     90.8068E-03     92.3795E-03     21.0732E-03     19.8402E-03
            6371               1     105.332E-03     105.342E-03     17.9264E-03     18.0512E-03
            6372               1     114.775E-03     116.219E-03     11.5232E-03     11.7718E-03
            6373               1     29.1803E-03     34.1584E-03     16.3308E-03     19.3447E-03
            6374               1     46.6539E-03     42.3360E-03     26.3062E-03     23.0593E-03
            6375               1     51.4286E-03     49.2487E-03     26.7869E-03     23.6154E-03
            6376               1     59.4821E-03     60.1263E-03     25.3392E-03     23.4491E-03
            6377               1     71.2691E-03     72.3515E-03     23.5689E-03     21.2444E-03
            6378               1     82.5334E-03     85.0332E-03     18.9694E-03     18.0485E-03
            6379               1     97.0189E-03     101.152E-03     13.5192E-03     14.3479E-03
            6380               1     110.254E-03     107.581E-03     8.42286E-03     10.3201E-03
            6381               1     38.0384E-03     38.9180E-03     21.9374E-03     18.5208E-03
            6382               1     48.6622E-03     48.2146E-03     28.0192E-03     25.3314E-03
            6383               1     51.1736E-03     54.7171E-03     27.1978E-03     26.3133E-03
            6384               1     59.2461E-03     62.2181E-03     27.2962E-03     25.8268E-03
            6385               1     66.2866E-03     69.4718E-03     23.5538E-03     23.0035E-03
            6386               1     76.0082E-03     77.8282E-03     19.5098E-03     18.6574E-03
            6387               1     82.7940E-03     84.8755E-03     10.3179E-03     10.5310E-03
            6388               1     90.3118E-03     96.6287E-03    -2.98524E-03     800.094E-06
            6389               1     48.6583E-03     56.4035E-03     19.2299E-03     15.8550E-03
            6390               1     35.0422E-03     36.8313E-03     19.4027E-03     18.2854E-03
            6391               1     31.8147E-03     32.0285E-03     18.1448E-03     18.4388E-03
            6392               1     39.0561E-03     35.5072E-03     19.1240E-03     19.1196E-03
            6393               1     49.4649E-03     44.7675E-03     20.1157E-03     21.1302E-03
            6394               1     63.8186E-03     55.6489E-03     21.0023E-03     21.5158E-03
            6395               1     83.3521E-03     73.0652E-03     24.7375E-03     27.5299E-03
            6396               1     119.356E-03     101.553E-03     26.4893E-03     28.6569E-03
            6397               1     46.0768E-03     43.2200E-03     14.4975E-03     14.5850E-03
            6398               1     40.9096E-03     40.4820E-03     21.9335E-03     20.4078E-03
            6399               1     38.8373E-03     37.8642E-03     22.1442E-03     21.8488E-03
            6400               1     43.6312E-03     43.2335E-03     22.4220E-03     23.5969E-03
            6401               1     54.3688E-03     51.8389E-03     23.1840E-03     24.0471E-03
            6402               1     65.2903E-03     63.2639E-03     23.3964E-03     25.8843E-03
            6403               1     85.3260E-03     84.8722E-03     23.8406E-03     26.1703E-03
            6404               1     97.7226E-03     101.439E-03     17.5312E-03     15.3627E-03
            6405               1     36.4872E-03     40.0753E-03     13.9243E-03     14.7929E-03
            6406               1     36.8216E-03     37.6877E-03     19.7167E-03     20.3650E-03
            6407               1     41.6074E-03     41.9893E-03     23.8727E-03     24.2268E-03
            6408               1     47.8194E-03     47.4913E-03     24.6825E-03     25.3086E-03
            6409               1     55.1324E-03     55.1726E-03     24.6179E-03     26.0391E-03
            6410               1     67.5748E-03     68.1385E-03     24.4736E-03     25.6081E-03
            6411               1     77.1087E-03     77.4520E-03     20.6272E-03     18.9917E-03
            6412               1     90.3126E-03     85.6087E-03     13.5751E-03     12.0704E-03
            6413               1     35.3270E-03     35.0726E-03     15.2918E-03     15.4921E-03
            6414               1     35.6712E-03     37.6645E-03     19.9980E-03     20.9864E-03
            6415               1     41.0983E-03     42.8702E-03     23.4392E-03     24.5518E-03
            6416               1     48.6684E-03     49.1882E-03     25.5221E-03     26.2325E-03
            6417               1     56.9600E-03     57.4642E-03     25.6482E-03     26.3256E-03
            6418               1     64.1101E-03     63.4873E-03     23.6350E-03     22.8581E-03
            6419               1     72.9525E-03     70.8729E-03     19.5582E-03     18.6123E-03
            6420               1     81.3725E-03     80.9521E-03     13.3602E-03     12.3367E-03
            6421               1     31.0200E-03     32.7906E-03     14.9198E-03     15.8898E-03
            6422               1     35.5501E-03     37.2397E-03     20.3150E-03     21.3277E-03
            6423               1     41.8112E-03     43.3640E-03     23.6166E-03     24.6373E-03
            6424               1     49.2088E-03     50.3001E-03     25.5437E-03     26.3443E-03
            6425               1     55.9595E-03     55.4109E-03     25.6107E-03     25.3244E-03
            6426               1     62.0536E-03     60.9612E-03     23.4887E-03     22.8841E-03
            6427               1     67.8632E-03     66.8675E-03     19.2759E-03     18.1632E-03
            6428               1     75.0933E-03     72.5844E-03     12.3735E-03     11.3731E-03
            6429               1     29.5987E-03     30.2333E-03     15.6513E-03     16.0488E-03
            6430               1     34.6687E-03     36.6897E-03     19.9853E-03     21.1670E-03
            6431               1     42.5338E-03     44.1986E-03     23.6829E-03     24.7754E-03
            6432               1     49.6003E-03     49.5562E-03     25.5890E-03     25.7099E-03
            6433               1     55.0200E-03     54.6586E-03     25.4036E-03     25.2855E-03
            6434               1     59.8458E-03     58.3448E-03     23.5419E-03     22.4892E-03
            6435               1     63.0172E-03     61.4771E-03     18.8644E-03     17.8392E-03
            6436               1     67.4300E-03     66.3318E-03     12.3168E-03     11.8355E-03
            6437               1     26.9276E-03     28.7788E-03     14.9398E-03     16.2060E-03
            6438               1     35.5500E-03     37.1498E-03     20.3404E-03     21.3630E-03
            6439               1     43.0818E-03     43.8823E-03     23.6356E-03     24.2143E-03
            6440               1     49.5570E-03     49.5697E-03     25.4012E-03     25.5829E-03
            6441               1     54.6016E-03     53.2959E-03     25.5480E-03     24.7815E-03
            6442               1     56.7473E-03     55.6829E-03     23.1483E-03     22.2857E-03
            6443               1     58.9934E-03     57.4248E-03     19.0363E-03     18.1589E-03
            6444               1     60.3460E-03     59.4281E-03     12.2968E-03     11.4797E-03
            6445               1     27.1387E-03     28.4502E-03     15.4692E-03     16.3149E-03
            6446               1     35.8426E-03     37.4020E-03     20.2378E-03     21.1478E-03
            6447               1     44.0909E-03     44.3154E-03     23.7832E-03     24.1817E-03
            6448               1     49.8362E-03     48.7398E-03     25.5929E-03     24.8614E-03
            6449               1     52.4896E-03     51.8912E-03     24.9503E-03     24.2706E-03
            6450               1     54.9306E-03     53.6013E-03     23.1818E-03     22.1927E-03
            6451               1     53.7703E-03     53.5692E-03     18.7756E-03     18.0745E-03
            6452               1     53.8778E-03     52.3387E-03     12.0665E-03     11.9286E-03
            6453               1     25.5808E-03     29.5614E-03     14.4416E-03     16.5424E-03
            6454               1     38.5222E-03     39.0492E-03     20.9630E-03     21.8057E-03
            6455               1     46.1843E-03     44.3870E-03     25.0299E-03     23.7285E-03
            6456               1     48.2387E-03     47.1010E-03     25.2238E-03     23.8251E-03
            6457               1     50.0997E-03     50.5343E-03     24.0467E-03     23.4486E-03
            6458               1     51.1024E-03     51.8244E-03     22.1889E-03     21.8615E-03
            6459               1     50.7592E-03     49.6849E-03     18.8495E-03     18.3712E-03
            6460               1     44.9772E-03     46.6754E-03     12.1537E-03     11.7348E-03
            6461               1     32.1418E-03     32.3485E-03     15.8048E-03     17.7807E-03
            6462               1     44.4768E-03     41.5208E-03     24.6482E-03     21.9677E-03
            6463               1     45.3922E-03     43.6462E-03     25.2048E-03     22.9770E-03
            6464               1     45.8729E-03     46.7128E-03     24.1505E-03     23.2997E-03
            6465               1     47.0291E-03     47.8153E-03     23.3760E-03     22.2076E-03
            6466               1     46.2555E-03     49.5509E-03     20.4802E-03     20.8028E-03
            6467               1     44.1686E-03     48.1884E-03     17.1839E-03     18.5762E-03
            6468               1     40.5420E-03     37.6671E-03     11.7039E-03     12.1028E-03
            6469               1     38.5326E-03     44.7500E-03     20.9869E-03     17.5811E-03
            6470               1     43.8357E-03     44.5180E-03     25.0355E-03     22.8612E-03
            6471               1     42.7167E-03     45.3482E-03     23.7710E-03     23.2803E-03
            6472               1     44.8329E-03     46.6019E-03     24.2945E-03     23.3338E-03
            6473               1     43.5637E-03     46.9067E-03     22.1517E-03     22.1565E-03
            6474               1     42.1376E-03     45.2550E-03     19.9387E-03     19.6025E-03
            6475               1     36.8928E-03     43.3197E-03     15.4794E-03     16.6367E-03
            6476               1     21.7188E-03     34.4076E-03     7.73017E-03     10.8770E-03
            6477               1     31.8767E-03     36.6370E-03     17.7258E-03     14.9318E-03
            6478               1     36.4216E-03     36.4305E-03     20.7993E-03     20.3702E-03
            6479               1     37.1045E-03     37.5985E-03     20.8169E-03     21.4921E-03
            6480               1     40.3175E-03     38.0931E-03     22.2632E-03     21.9320E-03
            6481               1     40.5128E-03     39.0105E-03     22.1529E-03     22.5009E-03
            6482               1     41.3409E-03     37.2764E-03     22.1402E-03     21.5000E-03
            6483               1     42.0604E-03     39.3767E-03     21.6648E-03     22.6180E-03
            6484               1     47.2255E-03     38.5078E-03     17.2882E-03     19.6059E-03
            6485               1     24.9550E-03     28.4202E-03     12.9553E-03     16.2032E-03
            6486               1     37.7945E-03     38.8117E-03     21.8032E-03     22.1848E-03
            6487               1     40.8671E-03     39.5629E-03     23.3311E-03     22.8409E-03
            6488               1     39.5978E-03     39.5804E-03     22.6098E-03     22.8363E-03
            6489               1     40.7369E-03     39.5939E-03     22.9106E-03     22.6889E-03
            6490               1     41.1228E-03     41.1711E-03     22.9747E-03     23.6239E-03
            6491               1     42.4610E-03     40.3404E-03     22.8236E-03     22.4908E-03
            6492               1     32.5519E-03     31.9265E-03     16.6768E-03     13.6097E-03
            6493               1     23.5456E-03     28.5750E-03     13.1359E-03     16.4865E-03
            6494               1     38.3600E-03     39.0170E-03     22.1230E-03     22.3074E-03
            6495               1     41.1081E-03     40.2765E-03     23.6930E-03     23.1606E-03
            6496               1     39.7944E-03     40.6754E-03     22.9240E-03     23.1441E-03
            6497               1     40.0882E-03     40.2888E-03     23.0411E-03     22.8054E-03
            6498               1     40.3675E-03     42.6354E-03     22.9471E-03     23.4519E-03
            6499               1     38.6029E-03     38.5908E-03     21.7614E-03     21.0269E-03
            6500               1     29.4576E-03     22.9837E-03     15.7162E-03     12.9463E-03
            6501               1     31.5610E-03     34.3826E-03     18.0686E-03     15.2704E-03
            6502               1     38.3849E-03     38.1037E-03     21.9282E-03     21.3405E-03
            6503               1     38.5194E-03     40.3624E-03     22.0662E-03     22.6799E-03
            6504               1     40.6952E-03     41.4193E-03     23.4038E-03     23.0769E-03
            6505               1     39.6880E-03     42.5180E-03     22.9089E-03     23.2368E-03
            6506               1     38.2004E-03     39.5959E-03     22.0396E-03     21.2424E-03
            6507               1     34.8602E-03     38.7278E-03     20.0127E-03     20.6075E-03
            6508               1     26.1370E-03     28.6133E-03     13.6567E-03     16.1142E-03