   Element Label             Int         S.Mises         S.Mises           S.S12           S.S12
                              Pt          @Loc 1          @Loc 2          @Loc 1          @Loc 2
-------------------------------------------------------------------------------------------------
               1               1     1.17386E-03     1.17080E-03    -677.523E-06    -675.461E-06
               2               1     1.21351E-03     1.17511E-03    -700.218E-06    -678.258E-06
               3               1     1.17670E-03     1.15851E-03    -678.945E-06    -667.276E-06
               4               1     1.07700E-03     1.07154E-03    -619.607E-06    -618.628E-06
               5               1     1.11986E-03     1.07802E-03    -643.207E-06    -620.766E-06
               6               1     1.07697E-03     1.07328E-03    -618.655E-06    -608.743E-06
               7               1     887.069E-06     879.090E-06    -509.092E-06    -504.089E-06
               8               1     927.186E-06     886.941E-06    -524.627E-06    -506.457E-06
               9               1     894.951E-06     926.940E-06    -509.298E-06    -500.279E-06
              10               1     639.135E-06     626.996E-06    -356.051E-06    -361.330E-06
              11               1     677.449E-06     628.815E-06    -364.741E-06    -351.946E-06
              12               1     660.599E-06     732.292E-06    -364.769E-06    -350.594E-06
              13               1     319.111E-06     319.387E-06    -143.494E-06    -139.079E-06
              14               1     488.253E-06     404.972E-06    -228.966E-06    -207.243E-06
              15               1     303.617E-06     534.787E-06    -125.538E-06    -122.648E-06
              16               1     318.676E-06     465.603E-06     150.487E-06     175.550E-06
              17               1     610.961E-06     532.767E-06     316.148E-06     284.996E-06
              18               1     715.053E-06     938.342E-06     218.975E-06     215.288E-06
              19               1     42.1893E-03     43.2698E-03     24.2845E-03     24.0721E-03
              20               1     42.9999E-03     41.9115E-03     24.6449E-03     24.1897E-03
              21               1     42.5022E-03     42.4069E-03     24.3512E-03     24.3902E-03
              22               1     44.0354E-03     43.4617E-03     24.4999E-03     24.2612E-03
              23               1     45.7025E-03     45.4122E-03     24.4250E-03     24.2108E-03
              24               1     46.8036E-03     50.2716E-03     23.9734E-03     24.4197E-03
              25               1     56.8173E-03     49.2033E-03     24.6279E-03     24.2866E-03
              26               1     49.7101E-03     56.7101E-03     23.9915E-03     23.3502E-03
              27               1     44.6145E-03     43.1563E-03     23.3207E-03     23.4265E-03
              28               1     47.5641E-03     46.4141E-03     23.4768E-03     22.7684E-03
              29               1     50.9301E-03     50.5774E-03     23.6327E-03     22.9855E-03
              30               1     55.2984E-03     54.0709E-03     23.4633E-03     22.8128E-03
              31               1     59.2063E-03     60.0101E-03     23.2991E-03     22.9944E-03
              32               1     64.8069E-03     64.3280E-03     23.1359E-03     23.1369E-03
              33               1     68.9251E-03     68.2907E-03     22.9418E-03     23.2040E-03
              34               1     69.0967E-03     79.2084E-03     22.2251E-03     23.5575E-03
              35               1     90.0397E-03     72.2878E-03     23.5009E-03     23.4735E-03
              36               1     70.8593E-03     85.3951E-03     22.5879E-03     21.4542E-03
              37               1     61.1435E-03     62.6363E-03     21.9008E-03     22.5133E-03
              38               1     74.6466E-03     66.2747E-03     22.1212E-03     21.1077E-03
              39               1     73.5627E-03     77.1214E-03     22.5087E-03     20.9951E-03
              40               1     82.0355E-03     79.9580E-03     22.3975E-03     21.3020E-03
              41               1     87.4360E-03     86.5895E-03     21.9751E-03     21.1407E-03
              42               1     91.8674E-03     94.0613E-03     21.8035E-03     21.6828E-03
              43               1     99.2258E-03     98.3442E-03     21.5818E-03     22.1359E-03
              44               1     103.299E-03     102.173E-03     21.2892E-03     22.1272E-03
              45               1     101.220E-03     116.936E-03     20.4799E-03     22.7168E-03
              46               1     130.917E-03     103.265E-03     22.1932E-03     22.4919E-03
              47               1     99.3950E-03     120.720E-03     21.1793E-03     19.5337E-03
              48               1     87.9363E-03     94.9589E-03     20.5798E-03     21.7193E-03
              49               1     113.551E-03     96.1399E-03     20.6095E-03     19.3575E-03
              50               1     105.360E-03     114.012E-03     21.4664E-03     19.1613E-03
              51               1     116.967E-03     114.227E-03     21.1533E-03     19.6705E-03
              52               1     123.146E-03     121.986E-03     20.5773E-03     19.4751E-03
              53               1     127.050E-03     130.521E-03     20.3324E-03     20.2231E-03
              54               1     135.450E-03     134.170E-03     20.0274E-03     20.8832E-03
              55               1     139.197E-03     137.347E-03     19.5777E-03     20.8418E-03
              56               1     134.604E-03     155.348E-03     18.6051E-03     21.6048E-03
              57               1     171.973E-03     135.148E-03     20.6888E-03     21.3061E-03
              58               1     128.893E-03     156.352E-03     19.5810E-03     17.5210E-03
              59               1     120.170E-03     133.523E-03     19.7760E-03     21.6265E-03
              60               1     157.597E-03     131.502E-03     18.8178E-03     17.9640E-03
              61               1     140.579E-03     158.094E-03     20.2235E-03     18.4433E-03
              62               1     157.156E-03     153.550E-03     18.9674E-03     18.6772E-03
              63               1     161.963E-03     159.282E-03     18.2204E-03     18.2416E-03
              64               1     154.753E-03     180.429E-03     16.5059E-03     18.7237E-03
              65               1     197.733E-03     155.306E-03     18.5996E-03     18.9237E-03
              66               1     147.486E-03     179.162E-03     16.9319E-03     14.5555E-03
              67               1     28.5583E-03     30.8739E-03     16.3983E-03     16.2605E-03
              68               1     29.3008E-03     28.7739E-03     16.7669E-03     16.5276E-03
              69               1     29.5365E-03     29.2557E-03     16.5202E-03     16.5072E-03
              70               1     33.3157E-03     32.5450E-03     16.5400E-03     16.5283E-03
              71               1     36.4647E-03     36.5770E-03     16.6122E-03     16.4246E-03
              72               1     41.0251E-03     46.3442E-03     16.5717E-03     16.9648E-03
              73               1     55.7132E-03     43.5495E-03     17.1824E-03     16.9690E-03
              74               1     45.1590E-03     57.3390E-03     16.4076E-03     15.8126E-03
              75               1     38.4271E-03     36.0015E-03     15.3357E-03     15.7758E-03
              76               1     45.0139E-03     43.3939E-03     15.1459E-03     15.0825E-03
              77               1     49.9469E-03     51.6610E-03     15.3900E-03     15.0784E-03
              78               1     58.6799E-03     57.4646E-03     15.2829E-03     15.5628E-03
              79               1     64.1727E-03     66.4550E-03     15.2386E-03     15.5214E-03
              80               1     74.3636E-03     72.2438E-03     15.8600E-03     15.9478E-03
              81               1     79.1742E-03     77.7847E-03     16.1138E-03     15.4489E-03
              82               1     82.1452E-03     94.8006E-03     15.8945E-03     16.5066E-03
              83               1     107.606E-03     82.1312E-03     16.9387E-03     16.4948E-03
              84               1     81.8962E-03     102.680E-03     15.5350E-03     14.2575E-03
              85               1     71.3519E-03     74.4267E-03     14.3009E-03     15.3704E-03
              86               1     91.6878E-03     79.4542E-03     12.9155E-03     13.2743E-03
              87               1     89.7031E-03     96.7520E-03     14.2538E-03     13.6144E-03
              88               1     100.700E-03     99.9508E-03     13.2983E-03     14.2605E-03
              89               1     110.025E-03     107.625E-03     14.0920E-03     14.4336E-03
              90               1     113.864E-03     117.603E-03     14.2634E-03     14.4549E-03
              91               1     126.409E-03     122.124E-03     15.0023E-03     14.8237E-03
              92               1     129.647E-03     127.409E-03     15.5643E-03     14.2528E-03
              93               1     129.915E-03     149.018E-03     14.8825E-03     15.7535E-03
              94               1     164.571E-03     126.677E-03     16.5953E-03     15.9131E-03
              95               1     123.744E-03     152.433E-03     14.3710E-03     12.4351E-03
              96               1     111.977E-03     122.562E-03     12.9826E-03     14.7229E-03
              97               1     147.169E-03     122.914E-03     10.7731E-03     11.3917E-03
              98               1     136.301E-03     149.653E-03     12.7909E-03     11.8337E-03
              99               1     149.941E-03     148.460E-03     11.4875E-03     12.9556E-03
             100               1     160.543E-03     156.550E-03     12.5675E-03     13.0148E-03
             101               1     162.338E-03     167.784E-03     12.9451E-03     13.1248E-03
             102               1     176.693E-03     170.889E-03     13.8533E-03     13.5645E-03
             103               1     178.506E-03     175.643E-03     14.7081E-03     12.9432E-03
             104               1     176.084E-03     201.176E-03     13.6786E-03     14.8596E-03
             105               1     218.994E-03     169.757E-03     15.9944E-03     15.1381E-03
             106               1     164.146E-03     200.000E-03     13.0598E-03     10.5681E-03
             107               1     154.711E-03     173.118E-03     11.1281E-03     13.1325E-03
             108               1     205.585E-03     168.633E-03     9.47204E-03     9.26748E-03
             109               1     182.976E-03     208.205E-03     11.0018E-03     9.13447E-03
             110               1     205.396E-03     199.421E-03     10.9127E-03     11.7643E-03
             111               1     210.511E-03     206.050E-03     11.6303E-03     10.7096E-03
             112               1     202.808E-03     235.645E-03     11.5421E-03     13.6897E-03
             113               1     252.292E-03     196.372E-03     13.5639E-03     13.6274E-03
             114               1     188.730E-03     228.969E-03     11.1956E-03     8.78678E-03
             115               1     13.1966E-03     17.8175E-03     7.55562E-03     7.48969E-03
             116               1     12.9301E-03     13.3774E-03     7.23739E-03     7.28290E-03
             117               1     16.4623E-03     16.1312E-03     7.23382E-03     7.61823E-03
             118               1     23.7674E-03     23.2130E-03     7.28925E-03     7.85988E-03
             119               1     30.2715E-03     29.9562E-03     7.51655E-03     7.82666E-03
             120               1     36.1501E-03     43.0477E-03     7.60837E-03     7.55724E-03
             121               1     58.5308E-03     40.6124E-03     8.49898E-03     7.60892E-03
             122               1     43.2078E-03     60.3183E-03     8.16359E-03     7.24491E-03
             123               1     38.3122E-03     36.0476E-03     6.22338E-03     7.20817E-03
             124               1     49.4389E-03     46.6882E-03     5.18902E-03     6.55789E-03
             125               1     54.2961E-03     57.3150E-03     6.04407E-03     7.16073E-03
             126               1     64.0315E-03     62.7762E-03     6.04336E-03     7.34589E-03
             127               1     71.4119E-03     72.5155E-03     6.73249E-03     7.33966E-03
             128               1     81.7222E-03     79.5687E-03     6.93818E-03     6.90520E-03
             129               1     89.4831E-03     86.4859E-03     7.40067E-03     6.84300E-03
             130               1     92.1983E-03     106.920E-03     7.50103E-03     6.45799E-03
             131               1     127.364E-03     94.9839E-03     9.30997E-03     7.02552E-03
             132               1     93.4317E-03     120.580E-03     8.09481E-03     6.06818E-03
             133               1     85.5070E-03     92.9858E-03     4.50226E-03     6.87836E-03
             134               1     114.472E-03     97.0858E-03     3.40045E-03     5.88498E-03
             135               1     106.385E-03     117.206E-03     4.20839E-03     6.58188E-03
             136               1     119.200E-03     116.276E-03     5.15063E-03     7.28662E-03
             137               1     126.776E-03     124.675E-03     5.20413E-03     6.42423E-03
             138               1     132.315E-03     135.087E-03     6.11297E-03     6.39984E-03
             139               1     144.646E-03     140.674E-03     6.39550E-03     5.75731E-03
             140               1     151.954E-03     147.471E-03     6.93774E-03     5.32701E-03
             141               1     151.430E-03     173.919E-03     7.33192E-03     5.18208E-03
             142               1     199.145E-03     152.061E-03     9.71732E-03     6.07523E-03
             143               1     146.284E-03     183.576E-03     7.93018E-03     4.69960E-03
             144               1     137.159E-03     154.917E-03     2.70982E-03     6.30285E-03
             145               1     184.735E-03     152.447E-03     997.492E-06     4.80790E-03
             146               1     163.573E-03     181.898E-03     2.51167E-03     5.83442E-03
             147               1     179.111E-03     174.436E-03     3.71997E-03     6.62490E-03
             148               1     186.520E-03     183.019E-03     3.89557E-03     5.50578E-03
             149               1     190.190E-03     194.198E-03     5.03391E-03     5.32586E-03
             150               1     203.750E-03     198.470E-03     5.58356E-03     4.55892E-03
             151               1     210.661E-03     204.588E-03     6.23266E-03     3.85519E-03
             152               1     206.997E-03     236.644E-03     6.95657E-03     3.84117E-03
             153               1     266.190E-03     205.455E-03     9.92463E-03     5.06385E-03
             154               1     195.737E-03     242.349E-03     7.60235E-03     3.27306E-03
             155               1     186.985E-03     213.270E-03     496.178E-06     4.40360E-03
             156               1     252.956E-03     205.949E-03    -2.73571E-03     1.63393E-03
             157               1     219.238E-03     246.897E-03     1.32586E-03     3.67992E-03
             158               1     242.813E-03     232.295E-03     2.01878E-03     3.66059E-03
             159               1     249.052E-03     239.242E-03     4.26483E-03     3.40274E-03
             160               1     239.531E-03     274.523E-03     5.05522E-03     2.99386E-03
             161               1     304.789E-03     235.737E-03     9.71862E-03     4.83975E-03
             162               1     223.746E-03     274.527E-03     6.59222E-03     2.16389E-03
             163               1     5.40988E-03     11.7347E-03    -2.94392E-03    -2.37820E-03
             164               1     4.97201E-03     7.30876E-03    -2.65744E-03    -1.96845E-03
             165               1     11.9530E-03     11.1245E-03    -2.55382E-03    -1.72024E-03
             166               1     23.2059E-03     20.2903E-03    -2.08634E-03    -2.03444E-03
             167               1     29.1921E-03     30.2692E-03    -2.26500E-03    -2.59769E-03
             168               1     37.6680E-03     46.1207E-03    -2.85496E-03    -1.99949E-03
             169               1     62.0926E-03     40.8344E-03    -2.31492E-03    -3.06017E-03
             170               1     46.4550E-03     68.0245E-03    -2.77627E-03    -4.19688E-03
             171               1     44.6106E-03     46.1201E-03    -2.80461E-03    -285.998E-06
             172               1     59.7943E-03     51.9804E-03    -3.16252E-03    -878.805E-06
             173               1     59.1821E-03     64.4798E-03    -2.04272E-03    -1.14956E-03
             174               1     69.6229E-03     67.3120E-03    -1.98730E-03    -1.56417E-03
             175               1     76.2711E-03     80.2434E-03    -2.87137E-03    -2.62854E-03
             176               1     89.2167E-03     87.1851E-03    -2.48063E-03    -2.47441E-03
             177               1     95.9464E-03     95.3716E-03    -3.28738E-03    -3.99135E-03
             178               1     101.030E-03     119.739E-03    -4.11320E-03    -3.08511E-03
             179               1     141.288E-03     101.671E-03    -2.61712E-03    -4.95266E-03
             180               1     105.340E-03     141.287E-03    -3.29464E-03    -6.96232E-03
             181               1     100.541E-03     116.965E-03    -2.44791E-03     2.06682E-03
             182               1     135.644E-03     109.538E-03    -3.90986E-03     477.513E-06
             183               1     117.875E-03     132.596E-03    -734.049E-06    -634.268E-06
             184               1     129.948E-03     129.312E-03    -2.49518E-03    -891.449E-06
             185               1     139.388E-03     137.522E-03    -2.11972E-03    -2.28714E-03
             186               1     141.761E-03     151.204E-03    -3.49500E-03    -3.21065E-03
             187               1     159.299E-03     155.362E-03    -3.57165E-03    -3.37238E-03
             188               1     163.822E-03     163.630E-03    -4.27591E-03    -5.54341E-03
             189               1     166.616E-03     195.113E-03    -5.93176E-03    -4.55379E-03
             190               1     223.199E-03     164.796E-03    -2.98511E-03    -7.21764E-03
             191               1     166.176E-03     217.058E-03    -4.25282E-03    -10.1896E-03
             192               1     160.101E-03     191.782E-03    -2.69749E-03     4.04580E-03
             193               1     215.730E-03     170.517E-03    -4.76560E-03     1.42292E-03
             194               1     181.032E-03     205.493E-03    -294.389E-06    -534.529E-06
             195               1     194.819E-03     194.021E-03    -2.78860E-03    -568.565E-06
             196               1     205.052E-03     201.859E-03    -2.51738E-03    -2.72256E-03
             197               1     203.635E-03     217.159E-03    -4.14962E-03    -3.84819E-03
             198               1     223.990E-03     218.819E-03    -4.57888E-03    -4.25282E-03
             199               1     227.077E-03     226.677E-03    -5.31195E-03    -7.15137E-03
             200               1     227.468E-03     265.011E-03    -7.68026E-03    -6.06314E-03
             201               1     299.162E-03     223.267E-03    -3.45709E-03    -9.48754E-03
             202               1     222.616E-03     287.294E-03    -5.25566E-03    -13.3217E-03
             203               1     215.191E-03     259.698E-03    -6.25722E-03     3.28462E-03
             204               1     290.354E-03     223.996E-03    -6.92529E-03     235.959E-06
             205               1     238.448E-03     276.581E-03    -3.88919E-03    -3.38279E-03
             206               1     263.865E-03     252.623E-03    -4.11038E-03    -2.19584E-03
             207               1     269.041E-03     261.044E-03    -5.93721E-03    -7.79492E-03
             208               1     260.235E-03     305.884E-03    -6.86014E-03    -6.04791E-03
             209               1     341.952E-03     253.258E-03    -3.61963E-03    -10.6394E-03
             210               1     253.652E-03     325.409E-03    -4.55688E-03    -14.6782E-03
             211               1     19.8375E-03     21.2592E-03    -11.4113E-03    -11.0161E-03
             212               1     20.5860E-03     19.5853E-03    -11.7916E-03    -11.0824E-03
             213               1     23.7434E-03     24.7337E-03    -12.1105E-03    -13.1508E-03
             214               1     31.9578E-03     32.5351E-03    -13.1033E-03    -13.3878E-03
             215               1     39.1590E-03     38.9594E-03    -13.0944E-03    -13.5268E-03
             216               1     45.1895E-03     57.0036E-03    -13.7812E-03    -14.7810E-03
             217               1     72.9580E-03     53.0527E-03    -14.6732E-03    -13.5506E-03
             218               1     56.0391E-03     75.1192E-03    -15.9156E-03    -14.9234E-03
             219               1     48.8911E-03     54.4476E-03    -6.14959E-03    -6.27392E-03
             220               1     63.9375E-03     56.6413E-03    -7.72023E-03    -7.83373E-03
             221               1     61.8291E-03     71.1237E-03    -9.71242E-03    -10.5477E-03
             222               1     76.2956E-03     75.7661E-03    -11.3745E-03    -11.7234E-03
             223               1     82.0826E-03     88.4525E-03    -11.6632E-03    -12.7888E-03
             224               1     95.8295E-03     98.0572E-03    -14.1875E-03    -13.8119E-03
             225               1     105.531E-03     103.635E-03    -13.8537E-03    -14.0110E-03
             226               1     105.861E-03     131.947E-03    -16.0454E-03    -16.8052E-03
             227               1     155.144E-03     117.057E-03    -18.6457E-03    -16.7010E-03
             228               1     116.421E-03     152.039E-03    -21.5858E-03    -19.7100E-03
             229               1     107.258E-03     129.522E-03    -206.368E-06    -1.00197E-03
             230               1     143.324E-03     118.455E-03    -3.12849E-03    -4.38950E-03
             231               1     121.137E-03     142.819E-03    -7.23561E-03    -7.56390E-03
             232               1     137.944E-03     139.684E-03    -9.10124E-03    -10.6144E-03
             233               1     147.841E-03     150.874E-03    -11.0346E-03    -11.3866E-03
             234               1     150.662E-03     162.539E-03    -12.1248E-03    -12.9563E-03
             235               1     167.754E-03     170.511E-03    -15.1762E-03    -14.5252E-03
             236               1     176.218E-03     174.644E-03    -15.4461E-03    -14.8998E-03
             237               1     171.250E-03     210.969E-03    -18.6090E-03    -19.4081E-03
             238               1     240.948E-03     184.775E-03    -23.2788E-03    -20.3512E-03
             239               1     180.259E-03     232.501E-03    -27.8284E-03    -25.1069E-03
             240               1     170.126E-03     209.546E-03     5.42214E-03     3.85721E-03
             241               1     228.303E-03     184.851E-03     896.818E-06    -1.28106E-03
             242               1     184.642E-03     220.158E-03    -5.03567E-03    -5.20523E-03
             243               1     206.040E-03     207.544E-03    -7.97340E-03    -9.85906E-03
             244               1     215.587E-03     219.827E-03    -10.2851E-03    -10.8511E-03
             245               1     214.930E-03     231.789E-03    -12.2940E-03    -13.0568E-03
             246               1     234.461E-03     238.418E-03    -16.1557E-03    -15.3021E-03
             247               1     242.255E-03     240.642E-03    -16.9418E-03    -15.9071E-03
             248               1     232.185E-03     284.676E-03    -21.1162E-03    -22.0108E-03
             249               1     320.718E-03     247.765E-03    -27.7017E-03    -23.9117E-03
             250               1     239.746E-03     307.314E-03    -33.7709E-03    -30.2955E-03
             251               1     227.186E-03     282.746E-03     8.02189E-03     5.66120E-03
             252               1     307.848E-03     244.799E-03     287.846E-06    -1.00828E-03
             253               1     239.461E-03     293.134E-03    -5.36868E-03    -6.29850E-03
             254               1     275.241E-03     271.617E-03    -13.8699E-03    -13.3195E-03
             255               1     282.535E-03     278.363E-03    -13.6483E-03    -14.6195E-03
             256               1     263.642E-03     327.690E-03    -21.9019E-03    -22.5581E-03
             257               1     367.042E-03     282.646E-03    -28.3682E-03    -25.5074E-03
             258               1     273.318E-03     350.368E-03    -36.7866E-03    -33.0184E-03
             259               1     37.1744E-03     39.8090E-03    -20.6689E-03    -20.7724E-03
             260               1     41.3481E-03     41.6646E-03    -23.7430E-03    -24.0224E-03
             261               1     42.4161E-03     43.0718E-03    -23.3379E-03    -24.2626E-03
             262               1     47.6184E-03     48.8923E-03    -24.6729E-03    -24.8706E-03
             263               1     56.8144E-03     53.0073E-03    -25.9496E-03    -24.9884E-03
             264               1     58.1626E-03     66.7608E-03    -24.4612E-03    -26.4806E-03
             265               1     83.9948E-03     70.4874E-03    -30.5878E-03    -29.1791E-03
             266               1     81.7088E-03     91.0422E-03    -30.7439E-03    -27.9283E-03
             267               1     45.6901E-03     49.0309E-03    -8.96935E-03    -11.9560E-03
             268               1     63.1962E-03     59.5598E-03    -14.8651E-03    -16.9606E-03
             269               1     73.0788E-03     75.2948E-03    -20.1097E-03    -20.0975E-03
             270               1     83.7783E-03     83.2819E-03    -21.0259E-03    -22.0058E-03
             271               1     93.8660E-03     93.1975E-03    -22.5934E-03    -22.5154E-03
             272               1     102.115E-03     104.106E-03    -23.7770E-03    -24.4970E-03
             273               1     116.473E-03     108.489E-03    -26.9466E-03    -24.7890E-03
             274               1     115.340E-03     131.637E-03    -25.1150E-03    -28.4772E-03
             275               1     156.167E-03     127.491E-03    -38.1889E-03    -34.7315E-03
             276               1     145.927E-03     163.068E-03    -42.3691E-03    -35.9701E-03
             277               1     107.580E-03     119.163E-03     4.27673E-03    -2.20103E-03
             278               1     133.588E-03     114.748E-03    -5.27950E-03    -9.26651E-03
             279               1     130.844E-03     140.201E-03    -17.0837E-03    -15.7698E-03
             280               1     146.590E-03     142.162E-03    -17.3395E-03    -19.5964E-03
             281               1     154.054E-03     154.939E-03    -20.5900E-03    -20.4297E-03
             282               1     164.236E-03     162.649E-03    -22.1044E-03    -22.1967E-03
             283               1     171.681E-03     174.182E-03    -23.7587E-03    -24.7439E-03
             284               1     187.264E-03     175.610E-03    -28.8094E-03    -25.3653E-03
             285               1     181.326E-03     204.848E-03    -26.5038E-03    -31.2416E-03
             286               1     234.602E-03     191.253E-03    -46.7264E-03    -41.1008E-03
             287               1     214.727E-03     239.800E-03    -55.0577E-03    -44.9382E-03
             288               1     177.336E-03     197.571E-03     17.3852E-03     7.28683E-03
             289               1     212.370E-03     178.495E-03     4.03221E-03    -1.97786E-03
             290               1     195.885E-03     212.688E-03    -14.7741E-03    -12.0023E-03
             291               1     215.901E-03     207.773E-03    -14.4448E-03    -17.9495E-03
             292               1     221.142E-03     222.733E-03    -19.4730E-03    -19.0311E-03
             293               1     231.513E-03     229.190E-03    -21.6332E-03    -21.7317E-03
             294               1     237.890E-03     240.991E-03    -23.9355E-03    -25.1492E-03
             295               1     254.582E-03     239.538E-03    -30.6966E-03    -26.0799E-03
             296               1     243.862E-03     274.027E-03    -28.0158E-03    -33.9653E-03
             297               1     308.366E-03     251.618E-03    -54.8824E-03    -47.2486E-03
             298               1     279.271E-03     311.677E-03    -67.0432E-03    -53.4721E-03
             299               1     241.915E-03     270.546E-03     26.8521E-03     13.2543E-03
             300               1     285.315E-03     238.136E-03     9.40051E-03     1.56039E-03
             301               1     258.019E-03     280.273E-03    -16.6662E-03    -12.1154E-03
             302               1     279.355E-03     272.646E-03    -16.7748E-03    -22.3226E-03
             303               1     292.781E-03     278.643E-03    -29.5501E-03    -23.3799E-03
             304               1     281.074E-03     314.600E-03    -27.5429E-03    -34.3006E-03
             305               1     352.462E-03     287.502E-03    -59.0932E-03    -50.1553E-03
             306               1     318.519E-03     355.463E-03    -74.1086E-03    -58.2944E-03
             307               1     164.117E-03     144.449E-03    -15.0191E-03    -13.4493E-03
             308               1     163.287E-03     185.954E-03    -29.5923E-03    -29.4066E-03
             309               1     158.662E-03     167.057E-03    -24.2311E-03    -20.3503E-03
             310               1     209.393E-03     173.235E-03    -25.9537E-03    -24.3338E-03
             311               1     182.668E-03     232.728E-03    -24.7955E-03    -24.5373E-03
             312               1     259.192E-03     191.955E-03    -24.2513E-03    -24.0461E-03
             313               1     193.387E-03     247.652E-03    -25.3271E-03    -26.9483E-03
             314               1     215.637E-03     199.293E-03    -30.7105E-03    -29.9936E-03
             315               1     218.083E-03     234.335E-03    -45.8164E-03    -44.4660E-03
             316               1     204.211E-03     222.858E-03    -37.9771E-03    -35.9463E-03
             317               1     266.348E-03     219.207E-03    -41.6164E-03    -41.5168E-03
             318               1     229.643E-03     291.103E-03    -40.1630E-03    -40.3715E-03
             319               1     305.117E-03     231.730E-03    -41.0228E-03    -37.7878E-03
             320               1     232.648E-03     286.059E-03    -41.7235E-03    -41.8152E-03
             321               1     256.964E-03     248.418E-03    -46.2608E-03    -44.2461E-03
             322               1     258.757E-03     273.342E-03    -54.7408E-03    -54.3087E-03
             323               1     242.786E-03     269.660E-03    -54.0851E-03    -50.3905E-03
             324               1     320.515E-03     258.115E-03    -56.0421E-03    -52.8595E-03
             325               1     266.446E-03     329.939E-03    -51.0149E-03    -51.4698E-03
             326               1     341.277E-03     264.938E-03    -49.1925E-03    -49.7418E-03
             327               1     257.408E-03     309.120E-03    -49.7648E-03    -50.0025E-03
             328               1     287.415E-03     282.712E-03    -53.3467E-03    -52.4116E-03
             329               1     288.489E-03     294.037E-03    -60.6082E-03    -59.1463E-03
             330               1     270.665E-03     315.477E-03    -59.0406E-03    -48.5705E-03
             331               1     354.236E-03     266.828E-03    -62.5070E-03    -55.1068E-03
             332               1     284.212E-03     355.161E-03    -57.9128E-03    -59.0715E-03
             333               1     360.656E-03     275.948E-03    -54.7987E-03    -58.6779E-03
             334               1     273.293E-03     335.022E-03    -54.8422E-03    -62.0371E-03
             335               1     297.762E-03     302.808E-03    -59.7424E-03    -58.7552E-03
             336               1     304.818E-03     307.223E-03    -62.6070E-03    -60.7761E-03
             337               1     272.271E-03     342.448E-03    -42.8375E-03    -42.6493E-03
             338               1     374.201E-03     281.448E-03    -48.6372E-03    -49.0596E-03
             339               1     267.934E-03     364.763E-03    -55.3895E-03    -56.0669E-03
             340               1     366.218E-03     282.288E-03    -69.1827E-03    -65.1237E-03
             341               1     283.018E-03     340.395E-03    -72.2097E-03    -69.1144E-03
             342               1     305.922E-03     312.874E-03    -56.0509E-03    -52.9470E-03
             343               1     284.408E-03     280.940E-03    -43.5845E-03    -45.2036E-03
             344               1     300.249E-03     352.869E-03    -704.370E-06    -16.1358E-03
             345               1     345.974E-03     274.347E-03    -22.0459E-03    -25.4070E-03
             346               1     274.730E-03     327.117E-03    -46.6341E-03    -43.5713E-03
             347               1     329.733E-03     269.422E-03    -71.2000E-03    -66.9300E-03
             348               1     292.339E-03     310.448E-03    -90.9332E-03    -75.8983E-03
             349               1     204.822E-03     235.521E-03    -49.8696E-03    -46.7096E-03
             350               1     266.594E-03     218.560E-03    -51.7290E-03    -50.2341E-03
             351               1     222.540E-03     244.470E-03    -49.9636E-03    -50.3770E-03
             352               1     225.306E-03     245.822E-03    -51.3143E-03    -50.3634E-03
             353               1     263.701E-03     216.832E-03    -51.8250E-03    -50.2055E-03
             354               1     204.579E-03     235.972E-03    -50.7252E-03    -50.9187E-03
             355               1     202.470E-03     203.772E-03    -34.8462E-03    -34.9046E-03
             356               1     230.047E-03     272.017E-03    -46.4157E-03    -44.6695E-03
             357               1     301.099E-03     242.031E-03    -49.2771E-03    -48.5729E-03
             358               1     249.869E-03     278.047E-03    -47.1840E-03    -48.5342E-03
             359               1     244.458E-03     266.185E-03    -48.3192E-03    -45.7700E-03
             360               1     281.932E-03     232.192E-03    -48.3780E-03    -46.5132E-03
             361               1     215.744E-03     244.436E-03    -47.5052E-03    -46.7745E-03
             362               1     214.506E-03     216.005E-03    -34.1834E-03    -34.2419E-03
             363               1     247.180E-03     299.040E-03    -42.3137E-03    -38.5432E-03
             364               1     332.851E-03     259.414E-03    -44.0815E-03    -40.4279E-03
             365               1     262.960E-03     291.431E-03    -39.7051E-03    -39.4205E-03
             366               1     256.781E-03     277.239E-03    -38.4565E-03    -39.9204E-03
             367               1     287.754E-03     239.942E-03    -37.8823E-03    -38.1050E-03
             368               1     218.272E-03     244.328E-03    -38.1532E-03    -37.8477E-03
             369               1     219.172E-03     220.771E-03    -31.4504E-03    -31.5088E-03
             370               1     258.097E-03     329.008E-03    -27.0334E-03    -18.7391E-03
             371               1     345.805E-03     253.301E-03    -29.1940E-03    -22.9927E-03
             372               1     264.133E-03     298.194E-03    -26.2978E-03    -28.5945E-03
             373               1     251.170E-03     273.892E-03    -27.2108E-03    -26.2425E-03
             374               1     288.936E-03     232.991E-03    -26.2203E-03    -29.7032E-03
             375               1     211.256E-03     244.399E-03    -22.6448E-03    -27.6933E-03
             376               1     216.267E-03     217.859E-03    -26.8332E-03    -26.8917E-03
             377               1     259.071E-03     342.551E-03     7.02706E-03     4.68226E-03
             378               1     360.368E-03     270.288E-03    -1.54345E-03    -2.97316E-03
             379               1     249.374E-03     300.831E-03    -4.49298E-03    -554.622E-06
             380               1     237.288E-03     257.209E-03    -11.2180E-03    -9.81006E-03
             381               1     264.735E-03     222.750E-03    -14.9078E-03    -15.1977E-03
             382               1     199.555E-03     230.907E-03    -23.1573E-03    -19.0686E-03
             383               1     206.128E-03     207.605E-03    -20.6467E-03    -20.7051E-03
             384               1     320.028E-03     370.590E-03     57.5997E-03     43.9082E-03
             385               1     343.864E-03     274.320E-03     47.7228E-03     41.2126E-03
             386               1     247.872E-03     281.566E-03     16.5763E-03     28.1687E-03
             387               1     236.109E-03     231.129E-03     23.5120E-03     16.2699E-03
             388               1     217.121E-03     191.886E-03    -1.44494E-03     5.86543E-03
             389               1     171.266E-03     180.041E-03    -18.1199E-03    -7.86794E-03
             390               1     189.629E-03     190.887E-03    -13.3123E-03    -13.3708E-03
             391               1     1.24858E-03     1.22942E-03     720.807E-06     709.421E-06
             392               1     1.26830E-03     1.24319E-03     732.233E-06     717.531E-06
             393               1     1.25786E-03     1.25093E-03     725.441E-06     721.615E-06
             394               1     1.26168E-03     1.24251E-03     726.900E-06     715.819E-06
             395               1     1.24371E-03     1.25393E-03     716.218E-06     720.600E-06
             396               1     1.28653E-03     1.25004E-03     735.897E-06     718.112E-06
             397               1     1.23894E-03     1.20209E-03     711.803E-06     686.239E-06
             398               1     1.13468E-03     1.11702E-03     654.740E-06     643.428E-06
             399               1     1.15206E-03     1.13299E-03     664.916E-06     651.409E-06
             400               1     1.15911E-03     1.14714E-03     663.121E-06     658.353E-06
             401               1     1.16271E-03     1.13355E-03     657.480E-06     640.172E-06
             402               1     1.17967E-03     1.22014E-03     657.891E-06     667.965E-06
             403               1     1.26840E-03     1.19241E-03     675.828E-06     663.103E-06
             404               1     1.18636E-03     1.20872E-03     652.081E-06     627.435E-06
             405               1     915.632E-06     904.806E-06     527.995E-06     515.814E-06
             406               1     932.091E-06     921.940E-06     537.876E-06     525.500E-06
             407               1     936.796E-06     940.544E-06     519.243E-06     528.113E-06
             408               1     998.324E-06     1.00798E-03     534.145E-06     543.385E-06
             409               1     1.02414E-03     1.08245E-03     526.528E-06     531.082E-06
             410               1     1.28880E-03     1.07283E-03     569.354E-06     535.191E-06
             411               1     1.10270E-03     1.23295E-03     542.909E-06     507.299E-06
             412               1     575.773E-06     606.416E-06     331.617E-06     333.194E-06
             413               1     577.150E-06     640.301E-06     329.888E-06     349.913E-06
             414               1     700.883E-06     685.715E-06     362.898E-06     373.746E-06
             415               1     758.699E-06     727.892E-06     349.511E-06     332.374E-06
             416               1     858.938E-06     1.00835E-03     351.943E-06     364.092E-06
             417               1     1.24807E-03     866.272E-06     353.386E-06     327.526E-06
             418               1     997.554E-06     1.33600E-03     335.234E-06     284.437E-06
             419               1     255.267E-06     360.992E-06     146.615E-06     146.760E-06
             420               1     306.122E-06     266.551E-06     155.407E-06     147.058E-06
             421               1     341.934E-06     260.481E-06     87.8200E-06     82.0156E-06
             422               1     575.676E-06     532.314E-06     115.324E-06     73.2964E-06
             423               1     706.863E-06     1.00990E-03     61.2882E-06     48.7698E-06
             424               1     1.45516E-03     970.316E-06     81.2825E-06     88.1214E-06
             425               1     989.906E-06     1.50250E-03     38.2761E-06     44.2519E-06
             426               1     480.162E-06     687.142E-06    -134.667E-06    -140.514E-06
             427               1     425.994E-06     410.666E-06    -207.327E-06    -225.525E-06
             428               1     475.249E-06     494.066E-06    -218.115E-06    -260.827E-06
             429               1     782.620E-06     711.563E-06    -285.434E-06    -255.591E-06
             430               1     936.693E-06     1.16844E-03    -244.374E-06    -302.170E-06
             431               1     1.66124E-03     1.28984E-03    -372.776E-06    -344.903E-06
             432               1     1.65212E-03     1.99802E-03    -374.087E-06    -312.834E-06
             433               1     193.148E-03     242.591E-03    -3.52586E-03    -2.98088E-03
             434               1     260.906E-03     200.008E-03    -3.46143E-03    -3.89614E-03
             435               1     201.028E-03     232.327E-03    -2.92327E-03    -3.92504E-03
             436               1     202.415E-03     199.427E-03    -3.57118E-03    -4.13788E-03
             437               1     194.173E-03     192.787E-03    -3.64627E-03    -3.49340E-03
             438               1     179.819E-03     183.528E-03    -3.86703E-03    -3.82890E-03
             439               1     169.864E-03     166.591E-03    -3.90953E-03    -3.19944E-03
             440               1     151.077E-03     165.827E-03    -4.14684E-03    -3.62148E-03
             441               1     161.258E-03     136.895E-03    -3.96949E-03    -3.32976E-03
             442               1     121.085E-03     129.642E-03    -3.66684E-03    -4.32430E-03
             443               1     141.480E-03     181.375E-03    -4.98778E-03    -4.56582E-03
             444               1     191.423E-03     144.595E-03    -5.04826E-03    -5.27877E-03
             445               1     143.009E-03     166.724E-03    -4.55633E-03    -5.35711E-03
             446               1     141.095E-03     139.142E-03    -5.08855E-03    -5.43849E-03
             447               1     132.497E-03     130.739E-03    -5.15462E-03    -5.01191E-03
             448               1     118.129E-03     121.434E-03    -5.30817E-03    -5.22584E-03
             449               1     108.387E-03     106.147E-03    -5.33858E-03    -4.80432E-03
             450               1     92.9779E-03     99.9909E-03    -5.43228E-03    -5.13003E-03
             451               1     91.3854E-03     81.2697E-03    -5.38030E-03    -4.87373E-03
             452               1     69.2715E-03     68.1949E-03    -5.11992E-03    -5.55187E-03
             453               1     91.3652E-03     121.691E-03    -6.65181E-03    -6.35994E-03
             454               1     123.756E-03     90.9944E-03    -6.74914E-03    -6.81033E-03
             455               1     86.9500E-03     103.108E-03    -6.40413E-03    -6.96926E-03
             456               1     81.8906E-03     81.0334E-03    -6.70216E-03    -6.88367E-03
             457               1     73.2032E-03     71.2827E-03    -6.76114E-03    -6.69801E-03
             458               1     59.6995E-03     61.6646E-03    -6.90792E-03    -6.70811E-03
             459               1     49.3126E-03     49.5081E-03    -6.74684E-03    -6.53601E-03
             460               1     39.3725E-03     38.5511E-03    -6.99412E-03    -6.70578E-03
             461               1     28.1487E-03     26.9288E-03    -6.63498E-03    -6.59924E-03
             462               1     16.7553E-03     20.5949E-03    -7.02669E-03    -6.71759E-03
             463               1     14.7365E-03     12.3998E-03    -6.50470E-03    -6.65420E-03
             464               1     21.9898E-03     38.7764E-03    -7.11327E-03    -6.98123E-03
             465               1     30.0459E-03     15.5255E-03    -7.10201E-03    -7.03292E-03
             466               1     12.9784E-03     18.8336E-03    -7.07074E-03    -7.03055E-03
             467               1     12.5757E-03     17.8603E-03    -7.10489E-03    -7.09654E-03
             468               1     202.497E-03     252.734E-03     8.60789E-03     8.71933E-03
             469               1     271.737E-03     208.391E-03     7.96411E-03     7.66862E-03
             470               1     213.034E-03     245.418E-03     7.97841E-03     7.65045E-03
             471               1     213.789E-03     210.716E-03     8.18900E-03     8.77269E-03
             472               1     206.282E-03     203.909E-03     8.14913E-03     8.20699E-03
             473               1     191.809E-03     194.862E-03     8.94337E-03     8.99355E-03
             474               1     181.801E-03     177.911E-03     8.95797E-03     8.24513E-03
             475               1     163.103E-03     179.516E-03     8.83661E-03     9.39511E-03
             476               1     174.369E-03     146.918E-03     9.59753E-03     9.01195E-03
             477               1     131.614E-03     141.944E-03     8.39178E-03     7.86167E-03
             478               1     148.522E-03     189.110E-03     7.25318E-03     7.34891E-03
             479               1     199.580E-03     150.837E-03     6.82356E-03     6.53526E-03
             480               1     152.058E-03     176.524E-03     6.78554E-03     6.57524E-03
             481               1     149.421E-03     147.501E-03     6.96261E-03     7.37218E-03
             482               1     141.429E-03     138.857E-03     6.94470E-03     6.99696E-03
             483               1     126.679E-03     129.691E-03     7.49843E-03     7.53478E-03
             484               1     116.988E-03     114.233E-03     7.50852E-03     7.02189E-03
             485               1     101.308E-03     109.590E-03     7.37367E-03     7.79592E-03
             486               1     100.772E-03     88.5020E-03     7.98748E-03     7.48870E-03
             487               1     76.6500E-03     76.7410E-03     7.12063E-03     6.70627E-03
             488               1     95.0478E-03     125.949E-03     5.59893E-03     5.61127E-03
             489               1     128.102E-03     93.9749E-03     5.37136E-03     5.10901E-03
             490               1     91.8746E-03     108.379E-03     5.31494E-03     5.20795E-03
             491               1     85.8792E-03     85.1911E-03     5.37060E-03     5.67242E-03
             492               1     77.7129E-03     75.0437E-03     5.41304E-03     5.50832E-03
             493               1     63.0954E-03     65.4284E-03     5.68443E-03     5.72204E-03
             494               1     52.9271E-03     52.6634E-03     5.54584E-03     5.55007E-03
             495               1     42.4084E-03     41.7810E-03     5.92618E-03     5.66752E-03
             496               1     30.5741E-03     29.6594E-03     5.39657E-03     5.58012E-03
             497               1     18.9002E-03     22.6857E-03     6.17622E-03     5.71104E-03
             498               1     15.5688E-03     9.54598E-03     5.33336E-03     5.09651E-03
             499               1     22.0253E-03     39.3184E-03     6.41561E-03     6.36656E-03
             500               1     29.7899E-03     14.6081E-03     6.29163E-03     6.20789E-03
             501               1     11.8216E-03     18.9647E-03     6.33348E-03     6.19997E-03
             502               1     11.3492E-03     16.6203E-03     6.31033E-03     6.29595E-03
             503               1     205.795E-03     256.270E-03     18.3257E-03     18.9760E-03
             504               1     278.289E-03     215.493E-03     18.2285E-03     20.0335E-03
             505               1     217.312E-03     248.282E-03     19.2534E-03     20.8904E-03
             506               1     218.950E-03     214.584E-03     19.7842E-03     19.9281E-03
             507               1     211.304E-03     208.614E-03     20.6540E-03     20.5665E-03
             508               1     198.250E-03     200.182E-03     20.3217E-03     19.5618E-03
             509               1     190.052E-03     185.436E-03     21.0444E-03     20.1141E-03
             510               1     172.228E-03     188.380E-03     21.0151E-03     19.5018E-03
             511               1     189.270E-03     159.309E-03     21.9217E-03     20.3108E-03
             512               1     142.875E-03     155.785E-03     21.2136E-03     19.9192E-03
             513               1     152.000E-03     192.377E-03     17.7043E-03     18.1606E-03
             514               1     205.204E-03     157.287E-03     17.6642E-03     19.0199E-03
             515               1     156.513E-03     179.761E-03     18.4646E-03     19.6176E-03
             516               1     154.799E-03     151.792E-03     18.9054E-03     18.9042E-03
             517               1     146.858E-03     144.171E-03     19.5191E-03     19.3329E-03
             518               1     133.686E-03     135.613E-03     19.3121E-03     18.6512E-03
             519               1     125.453E-03     122.259E-03     19.8036E-03     19.0020E-03
             520               1     110.901E-03     118.964E-03     19.6983E-03     18.6744E-03
             521               1     114.594E-03     100.457E-03     20.3023E-03     19.2282E-03
             522               1     88.5198E-03     90.5199E-03     19.6960E-03     18.7210E-03
             523               1     98.4620E-03     128.343E-03     16.6395E-03     16.8602E-03
             524               1     132.114E-03     99.4784E-03     16.7402E-03     17.5731E-03
             525               1     96.2599E-03     111.569E-03     17.1792E-03     17.9239E-03
             526               1     91.4468E-03     89.9012E-03     17.6149E-03     17.4311E-03
             527               1     83.5033E-03     81.0212E-03     17.9090E-03     17.6695E-03
             528               1     71.1127E-03     72.3489E-03     17.7662E-03     17.2472E-03
             529               1     62.4889E-03     62.1837E-03     18.1434E-03     17.5198E-03
             530               1     53.9538E-03     52.5121E-03     17.7391E-03     17.1530E-03
             531               1     45.1200E-03     44.8021E-03     18.0473E-03     17.5464E-03
             532               1     37.2230E-03     38.9129E-03     17.6925E-03     17.4652E-03
             533               1     35.0246E-03     30.7600E-03     17.7554E-03     17.1646E-03
             534               1     37.7050E-03     48.2897E-03     18.9667E-03     18.5861E-03
             535               1     43.3602E-03     35.3148E-03     19.2955E-03     19.3445E-03
             536               1     33.8234E-03     36.7951E-03     19.3479E-03     19.4220E-03
             537               1     33.3151E-03     33.9352E-03     19.0962E-03     18.6747E-03
             538               1     206.356E-03     261.066E-03     30.1940E-03     33.6808E-03
             539               1     274.561E-03     209.002E-03     30.9980E-03     33.1630E-03
             540               1     215.343E-03     245.771E-03     31.8375E-03     30.8323E-03
             541               1     215.257E-03     212.770E-03     31.7938E-03     31.3567E-03
             542               1     209.927E-03     208.132E-03     30.2810E-03     29.7383E-03
             543               1     199.229E-03     202.342E-03     31.3533E-03     30.4257E-03
             544               1     190.899E-03     187.799E-03     29.8030E-03     28.9647E-03
             545               1     177.185E-03     195.931E-03     29.6211E-03     29.9873E-03
             546               1     198.058E-03     162.260E-03     31.0399E-03     28.5396E-03
             547               1     152.321E-03     170.601E-03     30.0134E-03     27.2479E-03
             548               1     154.562E-03     197.449E-03     29.5471E-03     32.1598E-03
             549               1     203.989E-03     154.956E-03     30.3122E-03     31.8133E-03
             550               1     157.603E-03     179.797E-03     30.8570E-03     30.0254E-03
             551               1     154.977E-03     153.347E-03     30.7951E-03     30.3632E-03
             552               1     149.081E-03     146.791E-03     29.7658E-03     29.1923E-03
             553               1     138.181E-03     140.890E-03     30.4912E-03     29.6498E-03
             554               1     130.393E-03     127.997E-03     29.4225E-03     28.6690E-03
             555               1     119.127E-03     129.072E-03     29.2996E-03     29.3714E-03
             556               1     126.348E-03     108.213E-03     30.3743E-03     28.5695E-03
             557               1     100.531E-03     106.075E-03     29.4052E-03     27.5952E-03
             558               1     103.311E-03     133.415E-03     28.3361E-03     29.9817E-03
             559               1     133.337E-03     101.762E-03     29.1084E-03     29.9387E-03
             560               1     100.932E-03     114.318E-03     29.3369E-03     28.6228E-03
             561               1     96.1221E-03     95.4142E-03     29.2236E-03     28.8595E-03
             562               1     90.6244E-03     87.5580E-03     28.8560E-03     27.9943E-03
             563               1     80.2255E-03     82.1392E-03     29.0622E-03     28.3576E-03
             564               1     73.8831E-03     72.9773E-03     28.5406E-03     27.8769E-03
             565               1     67.9770E-03     66.9647E-03     28.8678E-03     28.0593E-03
             566               1     60.4480E-03     61.2089E-03     28.1005E-03     28.1761E-03
             567               1     57.6372E-03     56.9347E-03     29.2975E-03     28.3482E-03
             568               1     52.8898E-03     49.9632E-03     27.9923E-03     27.6005E-03
             569               1     55.5145E-03     62.8658E-03     30.4274E-03     30.7319E-03
             570               1     59.6732E-03     53.8427E-03     31.1574E-03     30.6153E-03
             571               1     54.4930E-03     54.9406E-03     31.3429E-03     30.3952E-03
             572               1     53.2879E-03     53.4790E-03     30.6455E-03     30.5545E-03
             573               1     204.839E-03     251.554E-03     50.1436E-03     46.3625E-03
             574               1     267.155E-03     209.405E-03     46.9996E-03     44.4248E-03
             575               1     202.159E-03     239.278E-03     41.8461E-03     43.5920E-03
             576               1     209.446E-03     205.420E-03     39.3706E-03     39.4609E-03
             577               1     202.874E-03     205.601E-03     40.5626E-03     39.4054E-03
             578               1     192.422E-03     199.018E-03     36.7026E-03     38.3311E-03
             579               1     190.676E-03     186.737E-03     38.1503E-03     37.6679E-03
             580               1     171.788E-03     196.170E-03     36.2833E-03     36.1162E-03
             581               1     200.876E-03     166.231E-03     34.2303E-03     34.9886E-03
             582               1     150.979E-03     175.760E-03     32.3678E-03     32.8616E-03
             583               1     158.117E-03     192.373E-03     47.3215E-03     44.2212E-03
             584               1     201.267E-03     158.927E-03     44.8878E-03     42.7997E-03
             585               1     151.685E-03     178.523E-03     40.8963E-03     42.3549E-03
             586               1     154.178E-03     151.521E-03     39.0545E-03     39.0817E-03
             587               1     148.175E-03     149.465E-03     39.8268E-03     39.1398E-03
             588               1     137.664E-03     142.788E-03     37.1641E-03     38.3834E-03
             589               1     134.992E-03     132.513E-03     38.1243E-03     37.7833E-03
             590               1     121.113E-03     134.646E-03     36.9156E-03     37.1228E-03
             591               1     133.615E-03     115.789E-03     35.9435E-03     36.1494E-03
             592               1     105.552E-03     116.115E-03     34.8637E-03     34.6694E-03
             593               1     112.444E-03     133.003E-03     43.8148E-03     41.3556E-03
             594               1     135.497E-03     109.810E-03     42.1281E-03     40.5264E-03
             595               1     103.189E-03     118.692E-03     39.3290E-03     40.4982E-03
             596               1     101.262E-03     100.205E-03     38.1486E-03     37.9667E-03
             597               1     96.7640E-03     96.4595E-03     38.4496E-03     38.3720E-03
             598               1     87.6476E-03     90.7339E-03     37.0996E-03     37.5981E-03
             599               1     84.7242E-03     84.9132E-03     37.5839E-03     37.7118E-03
             600               1     79.3588E-03     79.6991E-03     37.1975E-03     37.3889E-03
             601               1     74.9183E-03     76.7531E-03     37.4954E-03     37.8647E-03
             602               1     72.8582E-03     71.4739E-03     37.5972E-03     37.2384E-03
             603               1     69.8545E-03     67.0580E-03     37.7869E-03     36.7121E-03
             604               1     73.4768E-03     75.6765E-03     41.4080E-03     40.3795E-03
             605               1     74.4615E-03     71.6961E-03     40.7659E-03     40.8798E-03
             606               1     70.3720E-03     71.9668E-03     40.5119E-03     40.8129E-03
             607               1     70.1513E-03     68.7408E-03     40.3847E-03     39.6308E-03
             608               1     222.039E-03     240.949E-03     71.6566E-03     62.6083E-03
             609               1     242.548E-03     201.935E-03     65.3049E-03     60.7936E-03
             610               1     193.221E-03     215.041E-03     45.9192E-03     51.3166E-03
             611               1     202.394E-03     192.081E-03     48.7339E-03     46.2811E-03
             612               1     191.525E-03     193.496E-03     45.2126E-03     46.4294E-03
             613               1     187.121E-03     187.918E-03     44.1816E-03     43.7927E-03
             614               1     182.935E-03     178.746E-03     42.3149E-03     44.4934E-03
             615               1     171.857E-03     183.226E-03     44.4007E-03     40.7622E-03
             616               1     180.891E-03     156.796E-03     33.5160E-03     35.7885E-03
             617               1     150.454E-03     170.193E-03     24.3037E-03     30.6599E-03
             618               1     175.394E-03     188.043E-03     64.9183E-03     58.2002E-03
             619               1     188.391E-03     159.148E-03     61.0272E-03     57.5282E-03
             620               1     148.519E-03     164.585E-03     46.2124E-03     50.2544E-03
             621               1     153.869E-03     146.277E-03     48.3023E-03     46.5340E-03
             622               1     143.788E-03     145.481E-03     45.5568E-03     46.5315E-03
             623               1     139.296E-03     139.762E-03     44.8136E-03     44.7000E-03
             624               1     134.308E-03     132.742E-03     43.7836E-03     45.2125E-03
             625               1     126.768E-03     132.258E-03     44.9453E-03     42.8861E-03
             626               1     126.882E-03     115.303E-03     38.9515E-03     40.2001E-03
             627               1     105.506E-03     116.621E-03     32.1283E-03     36.0009E-03
             628               1     128.831E-03     134.955E-03     57.2663E-03     52.9589E-03
             629               1     134.893E-03     117.896E-03     55.9321E-03     53.4544E-03
             630               1     106.823E-03     116.344E-03     45.8481E-03     48.5357E-03
             631               1     108.249E-03     103.939E-03     47.1650E-03     46.1499E-03
             632               1     100.362E-03     101.700E-03     45.0679E-03     45.8313E-03
             633               1     96.5339E-03     97.0081E-03     44.7272E-03     45.2615E-03
             634               1     92.8044E-03     93.5548E-03     44.7163E-03     44.9033E-03
             635               1     90.1625E-03     90.6273E-03     44.9253E-03     45.5139E-03
             636               1     86.7960E-03     87.6186E-03     45.1949E-03     44.8813E-03
             637               1     85.4845E-03     84.4290E-03     45.3681E-03     45.1595E-03
             638               1     76.2575E-03     77.2972E-03     41.3231E-03     42.1387E-03
             639               1     89.1464E-03     89.8880E-03     50.1574E-03     49.2927E-03
             640               1     92.0692E-03     89.4501E-03     51.9005E-03     51.1880E-03
             641               1     86.2772E-03     87.3694E-03     49.7646E-03     50.1599E-03
             642               1     82.4431E-03     82.3863E-03     47.5784E-03     47.4878E-03
             643               1     553.902E-06     567.947E-06     291.005E-06     296.911E-06
             644               1     620.558E-06     645.570E-06     342.920E-06     344.653E-06
             645               1     605.463E-06     631.429E-06     334.088E-06     338.718E-06
             646               1     599.711E-06     632.244E-06     333.199E-06     337.212E-06
             647               1     595.646E-06     633.932E-06     333.726E-06     337.182E-06
             648               1     591.527E-06     637.696E-06     333.325E-06     337.620E-06
             649               1     588.496E-06     638.956E-06     333.702E-06     337.217E-06
             650               1     585.255E-06     642.339E-06     333.415E-06     337.504E-06
             651               1     582.889E-06     644.320E-06     333.549E-06     337.368E-06
             652               1     581.101E-06     647.187E-06     333.612E-06     337.318E-06
             653               1     578.998E-06     649.892E-06     333.318E-06     337.607E-06
             654               1     579.110E-06     652.284E-06     333.932E-06     337.052E-06
             655               1     576.872E-06     655.704E-06     332.974E-06     338.000E-06
             656               1     579.537E-06     657.797E-06     334.509E-06     336.711E-06
             657               1     576.815E-06     661.910E-06     332.552E-06     338.676E-06
             658               1     582.955E-06     664.483E-06     335.621E-06     336.630E-06
             659               1     579.834E-06     668.564E-06     332.376E-06     339.487E-06
             660               1     591.489E-06     676.012E-06     338.307E-06     339.000E-06
             661               1     601.998E-06     684.620E-06     343.289E-06     350.027E-06
             662               1     698.276E-06     684.451E-06     403.148E-06     395.121E-06
             663               1     591.420E-06     616.820E-06     341.336E-06     355.960E-06
             664               1     580.762E-06     590.358E-06     334.939E-06     340.402E-06
             665               1     582.923E-06     596.394E-06     335.830E-06     343.482E-06
             666               1     583.317E-06     598.591E-06     335.560E-06     344.230E-06
             667               1     586.130E-06     597.744E-06     336.564E-06     343.089E-06
             668               1     585.551E-06     600.948E-06     335.471E-06     344.173E-06
             669               1     588.491E-06     601.088E-06     336.299E-06     343.350E-06
             670               1     589.518E-06     603.561E-06     335.885E-06     343.763E-06
             671               1     591.295E-06     605.712E-06     335.782E-06     343.867E-06
             672               1     594.706E-06     606.644E-06     336.517E-06     343.132E-06
             673               1     594.520E-06     611.607E-06     334.999E-06     344.650E-06
             674               1     601.296E-06     609.986E-06     337.493E-06     342.156E-06
             675               1     597.933E-06     618.985E-06     333.807E-06     345.838E-06
             676               1     609.285E-06     613.513E-06     338.849E-06     340.797E-06
             677               1     602.136E-06     627.520E-06     332.534E-06     347.233E-06
             678               1     617.083E-06     618.583E-06     339.664E-06     339.925E-06
             679               1     607.306E-06     630.452E-06     331.129E-06     344.613E-06
             680               1     623.665E-06     638.666E-06     339.683E-06     347.677E-06
             681               1     567.124E-06     578.968E-06     296.425E-06     306.834E-06
             682               1     642.571E-06     645.465E-06     350.535E-06     352.831E-06
             683               1     636.543E-06     624.499E-06     342.382E-06     346.530E-06
             684               1     637.816E-06     618.764E-06     341.316E-06     345.301E-06
             685               1     639.996E-06     614.397E-06     341.843E-06     345.343E-06
             686               1     642.410E-06     611.852E-06     341.471E-06     345.771E-06
             687               1     644.903E-06     607.719E-06     341.863E-06     345.371E-06
             688               1     647.304E-06     605.647E-06     341.570E-06     345.661E-06
             689               1     649.672E-06     603.011E-06     341.709E-06     345.526E-06
             690               1     652.628E-06     601.167E-06     341.756E-06     345.466E-06
             691               1     654.391E-06     600.229E-06     341.472E-06     345.754E-06
             692               1     658.431E-06     598.357E-06     342.019E-06     345.149E-06
             693               1     658.897E-06     599.541E-06     341.084E-06     346.093E-06
             694               1     664.843E-06     597.017E-06     342.348E-06     344.583E-06
             695               1     663.024E-06     601.103E-06     340.450E-06     346.502E-06
             696               1     671.596E-06     596.837E-06     342.385E-06     343.523E-06
             697               1     666.096E-06     603.867E-06     339.137E-06     346.178E-06
             698               1     675.726E-06     596.633E-06     340.636E-06     341.398E-06
             699               1     686.862E-06     618.908E-06     345.514E-06     350.544E-06
             700               1     40.7911E-03     38.9593E-03    -15.6737E-03    -17.6247E-03
             701               1     40.7805E-03     40.9233E-03    -23.1778E-03    -23.5211E-03
             702               1     42.3278E-03     42.6866E-03    -24.3946E-03    -24.5778E-03
             703               1     48.0412E-03     48.2782E-03    -27.6689E-03    -27.6955E-03
             704               1     49.8176E-03     50.0701E-03    -28.6900E-03    -28.7185E-03
             705               1     53.0143E-03     53.1767E-03    -30.5633E-03    -30.5613E-03
             706               1     53.6917E-03     53.7936E-03    -30.9869E-03    -30.9868E-03
             707               1     55.3556E-03     55.3851E-03    -31.9572E-03    -31.9560E-03
             708               1     55.4930E-03     55.4321E-03    -32.0081E-03    -32.0029E-03
             709               1     56.3737E-03     56.2420E-03    -32.4520E-03    -32.4518E-03
             710               1     56.2813E-03     56.0530E-03    -32.2852E-03    -32.2800E-03
             711               1     56.7580E-03     56.4494E-03    -32.4120E-03    -32.4076E-03
             712               1     56.4111E-03     56.0237E-03    -32.0156E-03    -32.0171E-03
             713               1     56.5347E-03     56.0124E-03    -31.8599E-03    -31.8321E-03
             714               1     55.5763E-03     55.0722E-03    -31.0484E-03    -31.0808E-03
             715               1     55.0619E-03     54.2233E-03    -30.4891E-03    -30.3815E-03
             716               1     52.6847E-03     52.1229E-03    -28.8974E-03    -28.9948E-03
             717               1     50.9054E-03     49.5010E-03    -27.7624E-03    -27.4307E-03
             718               1     45.5332E-03     44.8607E-03    -24.8684E-03    -24.9994E-03
             719               1     25.6545E-03     27.5245E-03    -13.1721E-03    -13.4617E-03
             720               1     40.3131E-03     41.5561E-03    -23.0107E-03    -23.8940E-03
             721               1     46.3008E-03     46.8153E-03    -26.4828E-03    -26.7137E-03
             722               1     48.9556E-03     49.3617E-03    -27.9912E-03    -28.1217E-03
             723               1     52.3000E-03     52.5491E-03    -29.9444E-03    -29.9825E-03
             724               1     52.8880E-03     53.0429E-03    -30.4017E-03    -30.4074E-03
             725               1     54.4700E-03     54.5818E-03    -31.3906E-03    -31.3996E-03
             726               1     54.4854E-03     54.4901E-03    -31.4461E-03    -31.4304E-03
             727               1     55.2861E-03     55.2716E-03    -31.9024E-03    -31.9076E-03
             728               1     55.2323E-03     55.1086E-03    -31.8078E-03    -31.7887E-03
             729               1     55.7421E-03     55.5985E-03    -31.9986E-03    -32.0020E-03
             730               1     55.6736E-03     55.4311E-03    -31.7961E-03    -31.7786E-03
             731               1     56.0767E-03     55.7690E-03    -31.8213E-03    -31.8049E-03
             732               1     55.8190E-03     55.5043E-03    -31.4197E-03    -31.4272E-03
             733               1     56.1252E-03     55.5305E-03    -31.2797E-03    -31.1781E-03
             734               1     55.1552E-03     54.9037E-03    -30.4088E-03    -30.5097E-03
             735               1     55.0075E-03     53.8769E-03    -29.9646E-03    -29.6222E-03
             736               1     52.1916E-03     52.0955E-03    -28.2036E-03    -28.4079E-03
             737               1     50.1912E-03     48.3467E-03    -27.0145E-03    -26.2180E-03
             738               1     21.3168E-03     19.7022E-03    -12.2790E-03    -11.3643E-03
             739               1     36.6215E-03     35.9580E-03    -21.0472E-03    -20.7188E-03
             740               1     46.6293E-03     47.1222E-03    -26.5876E-03    -26.8593E-03
             741               1     51.5339E-03     51.6672E-03    -29.2790E-03    -29.3082E-03
             742               1     52.9610E-03     53.1466E-03    -30.2591E-03    -30.3060E-03
             743               1     54.5553E-03     54.6759E-03    -31.2836E-03    -31.3052E-03
             744               1     54.3421E-03     54.3758E-03    -31.3006E-03    -31.2899E-03
             745               1     54.8244E-03     54.8662E-03    -31.6319E-03    -31.6423E-03
             746               1     54.6064E-03     54.5515E-03    -31.5126E-03    -31.4893E-03
             747               1     54.9050E-03     54.8745E-03    -31.6397E-03    -31.6483E-03
             748               1     54.9012E-03     54.7744E-03    -31.5271E-03    -31.5004E-03
             749               1     55.2844E-03     55.1718E-03    -31.5953E-03    -31.5981E-03
             750               1     55.4207E-03     55.2465E-03    -31.4656E-03    -31.4444E-03
             751               1     55.9871E-03     55.7229E-03    -31.5155E-03    -31.4786E-03
             752               1     55.9820E-03     55.8657E-03    -31.2263E-03    -31.2544E-03
             753               1     56.6458E-03     56.0580E-03    -31.1949E-03    -31.0290E-03
             754               1     55.5998E-03     55.8376E-03    -30.3001E-03    -30.5066E-03
             755               1     55.0093E-03     54.1069E-03    -29.5555E-03    -29.1986E-03
             756               1     50.8500E-03     51.6363E-03    -27.2951E-03    -27.6716E-03
             757               1     22.2898E-03     21.1974E-03    -11.5134E-03    -11.0405E-03
             758               1     36.5200E-03     35.7543E-03    -20.1666E-03    -19.7028E-03
             759               1     46.8352E-03     46.1838E-03    -26.3123E-03    -26.0225E-03
             760               1     51.7978E-03     51.8337E-03    -29.3809E-03    -29.3985E-03
             761               1     54.5311E-03     54.5252E-03    -31.0758E-03    -31.0792E-03
             762               1     54.5893E-03     54.5898E-03    -31.3392E-03    -31.3341E-03
             763               1     54.8113E-03     54.8414E-03    -31.5512E-03    -31.5663E-03
             764               1     54.4188E-03     54.3832E-03    -31.4045E-03    -31.3828E-03
             765               1     54.3407E-03     54.3606E-03    -31.3670E-03    -31.3793E-03
             766               1     54.2457E-03     54.1927E-03    -31.2638E-03    -31.2362E-03
             767               1     54.3778E-03     54.3924E-03    -31.2498E-03    -31.2641E-03
             768               1     54.6212E-03     54.5568E-03    -31.2386E-03    -31.2050E-03
             769               1     55.0703E-03     55.0658E-03    -31.2940E-03    -31.3067E-03
             770               1     55.5436E-03     55.5011E-03    -31.3362E-03    -31.3025E-03
             771               1     56.3183E-03     56.2305E-03    -31.4395E-03    -31.4288E-03
             772               1     56.5712E-03     56.7118E-03    -31.3121E-03    -31.3350E-03
             773               1     57.1553E-03     56.9294E-03    -31.1301E-03    -31.0866E-03
             774               1     55.4212E-03     56.2891E-03    -29.8195E-03    -30.1852E-03
             775               1     51.7745E-03     52.4272E-03    -27.2348E-03    -27.5773E-03
             776               1     28.3860E-03     27.1995E-03    -11.2147E-03    -10.5360E-03
             777               1     39.7628E-03     38.5031E-03    -20.4689E-03    -19.9576E-03
             778               1     47.3592E-03     46.8332E-03    -26.0218E-03    -25.7577E-03
             779               1     53.1064E-03     52.7363E-03    -29.8807E-03    -29.7839E-03
             780               1     54.1263E-03     53.9811E-03    -30.9199E-03    -30.8849E-03
             781               1     54.5161E-03     54.4396E-03    -31.2599E-03    -31.2616E-03
             782               1     54.2566E-03     54.1830E-03    -31.2640E-03    -31.2419E-03
             783               1     53.8356E-03     53.8391E-03    -31.0647E-03    -31.0762E-03
             784               1     53.6800E-03     53.6536E-03    -30.9874E-03    -30.9637E-03
             785               1     53.4695E-03     53.5346E-03    -30.8308E-03    -30.8467E-03
             786               1     53.6709E-03     53.6867E-03    -30.8541E-03    -30.8237E-03
             787               1     53.8312E-03     53.9669E-03    -30.8137E-03    -30.8419E-03
             788               1     54.3969E-03     54.4493E-03    -30.9638E-03    -30.9170E-03
             789               1     54.9229E-03     55.1380E-03    -31.0186E-03    -31.0748E-03
             790               1     55.7341E-03     55.8409E-03    -31.2593E-03    -31.1839E-03
             791               1     56.4590E-03     56.7580E-03    -31.2613E-03    -31.3784E-03
             792               1     56.7870E-03     57.1220E-03    -31.1707E-03    -31.1280E-03
             793               1     56.7392E-03     57.1700E-03    -30.3671E-03    -30.6313E-03
             794               1     53.4742E-03     54.7537E-03    -27.4676E-03    -28.1232E-03
             795               1     37.2625E-03     35.7853E-03    -11.7476E-03    -10.9253E-03
             796               1     44.0211E-03     43.2781E-03    -20.6571E-03    -20.2666E-03
             797               1     51.7335E-03     51.1327E-03    -27.7137E-03    -27.6926E-03
             798               1     52.4133E-03     51.9161E-03    -29.5140E-03    -29.3744E-03
             799               1     53.1720E-03     52.8934E-03    -30.2344E-03    -30.2149E-03
             800               1     53.4676E-03     53.2658E-03    -30.7019E-03    -30.6581E-03
             801               1     52.8931E-03     52.8142E-03    -30.4536E-03    -30.4588E-03
             802               1     52.9362E-03     52.8798E-03    -30.5526E-03    -30.5301E-03
             803               1     52.4483E-03     52.5004E-03    -30.2803E-03    -30.2935E-03
             804               1     52.6533E-03     52.7045E-03    -30.3625E-03    -30.3398E-03
             805               1     52.5125E-03     52.6948E-03    -30.2072E-03    -30.2315E-03
             806               1     53.0150E-03     53.1552E-03    -30.3731E-03    -30.3370E-03
             807               1     53.2082E-03     53.5514E-03    -30.3132E-03    -30.3727E-03
             808               1     54.0448E-03     54.2403E-03    -30.6071E-03    -30.5297E-03
             809               1     54.4442E-03     55.0175E-03    -30.5419E-03    -30.6954E-03
             810               1     55.5132E-03     55.6994E-03    -30.9233E-03    -30.7370E-03
             811               1     55.8366E-03     56.7101E-03    -30.5419E-03    -30.8755E-03
             812               1     56.3337E-03     56.4865E-03    -30.3675E-03    -30.0273E-03
             813               1     57.0698E-03     57.4975E-03    -29.1204E-03    -29.3477E-03
             814               1     49.5569E-03     49.8242E-03    -12.0430E-03    -12.0469E-03
             815               1     55.4536E-03     54.5558E-03    -25.1701E-03    -25.4722E-03
             816               1     51.3224E-03     50.4437E-03    -27.6559E-03    -27.5154E-03
             817               1     50.8187E-03     50.2645E-03    -28.1966E-03    -28.2116E-03
             818               1     51.6606E-03     51.2129E-03    -29.3846E-03    -29.3062E-03
             819               1     51.0246E-03     50.7803E-03    -29.2117E-03    -29.2081E-03
             820               1     51.6349E-03     51.4789E-03    -29.7323E-03    -29.7063E-03
             821               1     51.0529E-03     51.0291E-03    -29.4534E-03    -29.4610E-03
             822               1     51.4606E-03     51.4933E-03    -29.7103E-03    -29.6953E-03
             823               1     51.1229E-03     51.2848E-03    -29.4909E-03    -29.5052E-03
             824               1     51.6016E-03     51.7925E-03    -29.6954E-03    -29.6755E-03
             825               1     51.5387E-03     51.8977E-03    -29.5473E-03    -29.5802E-03
             826               1     52.2255E-03     52.5466E-03    -29.7939E-03    -29.7524E-03
             827               1     52.3265E-03     52.9397E-03    -29.6402E-03    -29.7359E-03
             828               1     53.2767E-03     53.6550E-03    -29.9735E-03    -29.8576E-03
             829               1     53.3031E-03     54.2887E-03    -29.6069E-03    -29.8559E-03
             830               1     54.5678E-03     54.8112E-03    -30.0090E-03    -29.6507E-03
             831               1     54.6222E-03     55.9394E-03    -29.0888E-03    -29.4950E-03
             832               1     56.4616E-03     56.1930E-03    -29.3081E-03    -28.3013E-03
             833               1     72.6464E-03     69.9370E-03    -18.9949E-03    -20.0056E-03
             834               1     54.7241E-03     53.0445E-03    -26.0766E-03    -25.9798E-03
             835               1     48.1262E-03     47.0594E-03    -24.7828E-03    -24.9028E-03
             836               1     49.3076E-03     48.4331E-03    -27.2563E-03    -27.1699E-03
             837               1     48.1699E-03     47.6581E-03    -27.1595E-03    -27.1792E-03
             838               1     49.6285E-03     49.2566E-03    -28.3745E-03    -28.3442E-03
             839               1     49.1079E-03     48.9325E-03    -28.2287E-03    -28.2354E-03
             840               1     49.9498E-03     49.8882E-03    -28.8097E-03    -28.7998E-03
             841               1     49.5505E-03     49.6336E-03    -28.6074E-03    -28.6137E-03
             842               1     50.1262E-03     50.3060E-03    -28.9223E-03    -28.9151E-03
             843               1     49.9175E-03     50.2397E-03    -28.7411E-03    -28.7508E-03
             844               1     50.5115E-03     50.9096E-03    -28.9799E-03    -28.9674E-03
             845               1     50.4641E-03     51.0352E-03    -28.8004E-03    -28.8272E-03
             846               1     51.1769E-03     51.7641E-03    -29.0244E-03    -28.9909E-03
             847               1     51.0901E-03     51.9559E-03    -28.6990E-03    -28.7810E-03
             848               1     51.9512E-03     52.6641E-03    -28.8899E-03    -28.7778E-03
             849               1     51.5831E-03     52.8445E-03    -28.0999E-03    -28.3002E-03
             850               1     53.0824E-03     53.8270E-03    -28.3417E-03    -27.9395E-03
             851               1     52.9848E-03     54.9055E-03    -26.5141E-03    -26.8423E-03
             852               1     22.2365E-03     29.8016E-03    -12.4667E-03    -15.6640E-03
             853               1     38.3661E-03     41.5623E-03    -19.9228E-03    -20.8680E-03
             854               1     45.2028E-03     46.7220E-03    -23.6104E-03    -23.9198E-03
             855               1     50.9845E-03     51.9478E-03    -27.3980E-03    -27.6061E-03
             856               1     53.9272E-03     54.4484E-03    -29.7534E-03    -29.8205E-03
             857               1     57.1930E-03     57.5328E-03    -32.3065E-03    -32.3570E-03
             858               1     58.6043E-03     58.7561E-03    -33.6001E-03    -33.6064E-03
             859               1     60.8759E-03     60.9243E-03    -35.1335E-03    -35.1436E-03
             860               1     61.8744E-03     61.7732E-03    -35.6166E-03    -35.6010E-03
             861               1     63.7783E-03     63.5918E-03    -36.2985E-03    -36.2954E-03
             862               1     64.8288E-03     64.4852E-03    -36.1284E-03    -36.1025E-03
             863               1     66.6068E-03     66.1659E-03    -36.0726E-03    -36.0549E-03
             864               1     67.7030E-03     67.0920E-03    -35.2566E-03    -35.2230E-03
             865               1     69.2436E-03     68.4756E-03    -34.4456E-03    -34.3946E-03
             866               1     70.0231E-03     69.0699E-03    -32.8446E-03    -32.8015E-03
             867               1     70.8361E-03     69.5877E-03    -31.1110E-03    -30.9947E-03
             868               1     70.5959E-03     69.0939E-03    -28.4922E-03    -28.4179E-03
             869               1     69.7343E-03     67.7210E-03    -25.5733E-03    -25.3585E-03
             870               1     67.0324E-03     64.5787E-03    -21.6386E-03    -21.4936E-03
             871               1     32.3599E-03     30.2065E-03    -14.4427E-03    -15.2949E-03
             872               1     42.8074E-03     45.5664E-03    -20.3657E-03    -22.1053E-03
             873               1     49.5011E-03     51.2408E-03    -24.4127E-03    -25.2495E-03
             874               1     52.6855E-03     53.6327E-03    -27.0759E-03    -27.4403E-03
             875               1     55.3635E-03     56.0534E-03    -29.7498E-03    -30.0051E-03
             876               1     56.2220E-03     56.5455E-03    -31.2230E-03    -31.2987E-03
             877               1     57.8578E-03     58.0814E-03    -32.9227E-03    -32.9933E-03
             878               1     58.3287E-03     58.3320E-03    -33.5904E-03    -33.5719E-03
             879               1     59.8538E-03     59.8354E-03    -34.4733E-03    -34.4858E-03
             880               1     60.7637E-03     60.5504E-03    -34.5702E-03    -34.5129E-03
             881               1     62.5822E-03     62.3645E-03    -34.8070E-03    -34.7899E-03
             882               1     64.0678E-03     63.6694E-03    -34.4114E-03    -34.3291E-03
             883               1     66.2379E-03     65.7778E-03    -34.0759E-03    -34.0095E-03
             884               1     68.0285E-03     67.4582E-03    -33.1089E-03    -33.0057E-03
             885               1     70.2574E-03     69.4711E-03    -32.1369E-03    -31.9653E-03
             886               1     71.7755E-03     71.0290E-03    -30.3942E-03    -30.2673E-03
             887               1     73.2595E-03     72.1513E-03    -28.5739E-03    -28.2384E-03
             888               1     73.4277E-03     72.5353E-03    -25.8202E-03    -25.6457E-03
             889               1     72.4181E-03     71.3997E-03    -22.7605E-03    -22.3182E-03
             890               1     35.3634E-03     34.2852E-03    -12.9722E-03    -12.1209E-03
             891               1     46.8031E-03     45.0661E-03    -20.5917E-03    -20.5957E-03
             892               1     52.2274E-03     52.9317E-03    -24.4100E-03    -25.1763E-03
             893               1     55.5349E-03     56.0600E-03    -27.7226E-03    -28.1001E-03
             894               1     56.2618E-03     56.6486E-03    -29.4724E-03    -29.7040E-03
             895               1     57.3285E-03     57.6168E-03    -31.4091E-03    -31.5612E-03
             896               1     56.9359E-03     57.0178E-03    -32.1560E-03    -32.1832E-03
             897               1     57.7130E-03     57.8022E-03    -33.1545E-03    -33.2015E-03
             898               1     57.9369E-03     57.8318E-03    -33.3645E-03    -33.3118E-03
             899               1     59.2772E-03     59.2427E-03    -33.7504E-03    -33.7536E-03
             900               1     60.6057E-03     60.3911E-03    -33.6213E-03    -33.5293E-03
             901               1     62.8067E-03     62.6481E-03    -33.5880E-03    -33.5516E-03
             902               1     65.0494E-03     64.7867E-03    -33.1130E-03    -32.9949E-03
             903               1     67.9797E-03     67.6455E-03    -32.6873E-03    -32.5710E-03
             904               1     70.5713E-03     70.3700E-03    -31.6783E-03    -31.5645E-03
             905               1     73.6054E-03     73.1176E-03    -30.6997E-03    -30.4412E-03
             906               1     75.5951E-03     75.6376E-03    -28.8026E-03    -28.7682E-03
             907               1     77.1479E-03     76.9504E-03    -26.8014E-03    -26.4536E-03
             908               1     76.6497E-03     77.4567E-03    -23.4955E-03    -23.7850E-03
             909               1     42.5187E-03     40.4956E-03    -11.6420E-03    -11.7301E-03
             910               1     48.7306E-03     47.6606E-03    -18.8725E-03    -18.5998E-03
             911               1     54.7859E-03     53.5509E-03    -24.6349E-03    -24.5085E-03
             912               1     56.7190E-03     56.6663E-03    -27.3776E-03    -27.6644E-03
             913               1     58.2220E-03     58.1489E-03    -30.1073E-03    -30.2296E-03
             914               1     57.2430E-03     57.2421E-03    -31.0513E-03    -31.1308E-03
             915               1     57.3919E-03     57.4337E-03    -32.2535E-03    -32.3236E-03
             916               1     56.6160E-03     56.5367E-03    -32.4811E-03    -32.4491E-03
             917               1     57.1211E-03     57.1758E-03    -32.9082E-03    -32.9360E-03
             918               1     57.7800E-03     57.6817E-03    -32.8846E-03    -32.8032E-03
             919               1     59.4507E-03     59.5185E-03    -32.9692E-03    -32.9723E-03
             920               1     61.5888E-03     61.5357E-03    -32.8019E-03    -32.6894E-03
             921               1     64.5186E-03     64.5728E-03    -32.6843E-03    -32.6520E-03
             922               1     67.6215E-03     67.7309E-03    -32.2640E-03    -32.1465E-03
             923               1     71.4225E-03     71.4309E-03    -31.8756E-03    -31.7673E-03
             924               1     74.5832E-03     75.1033E-03    -30.8121E-03    -30.8044E-03
             925               1     78.0832E-03     78.2475E-03    -29.7338E-03    -29.5407E-03
             926               1     79.9145E-03     81.0941E-03    -27.2835E-03    -27.6252E-03
             927               1     80.4428E-03     81.4776E-03    -24.3095E-03    -24.3816E-03
             928               1     49.6027E-03     47.3919E-03    -10.7048E-03    -9.88318E-03
             929               1     53.2481E-03     51.3133E-03    -18.3989E-03    -18.0598E-03
             930               1     56.1611E-03     55.1111E-03    -23.4061E-03    -23.2723E-03
             931               1     59.1131E-03     58.0117E-03    -28.0489E-03    -27.8732E-03
             932               1     58.1207E-03     57.7320E-03    -29.6503E-03    -29.6973E-03
             933               1     58.2867E-03     57.9763E-03    -31.4557E-03    -31.4683E-03
             934               1     56.5166E-03     56.3040E-03    -31.7357E-03    -31.7068E-03
             935               1     56.1692E-03     56.1531E-03    -32.2011E-03    -32.2331E-03
             936               1     55.8459E-03     55.7585E-03    -32.1776E-03    -32.1087E-03
             937               1     56.6102E-03     56.7784E-03    -32.2417E-03    -32.2714E-03
             938               1     58.1661E-03     58.2327E-03    -32.2031E-03    -32.1087E-03
             939               1     60.5290E-03     60.8536E-03    -32.1829E-03    -32.2141E-03
             940               1     63.6138E-03     63.8975E-03    -32.1345E-03    -32.0220E-03
             941               1     67.4002E-03     67.8297E-03    -32.0642E-03    -32.0886E-03
             942               1     71.2214E-03     71.9086E-03    -31.7549E-03    -31.6903E-03
             943               1     75.8308E-03     76.3089E-03    -31.4082E-03    -31.3933E-03
             944               1     79.1759E-03     80.5902E-03    -30.0330E-03    -30.2875E-03
             945               1     82.8363E-03     83.6165E-03    -28.4973E-03    -28.4600E-03
             946               1     84.5093E-03     86.1068E-03    -24.6285E-03    -25.4022E-03
             947               1     56.7378E-03     55.0810E-03    -9.82716E-03    -9.36255E-03
             948               1     58.1825E-03     56.2551E-03    -17.2724E-03    -16.7845E-03
             949               1     60.3922E-03     58.5606E-03    -24.2250E-03    -23.8367E-03
             950               1     59.1987E-03     58.1407E-03    -27.2329E-03    -27.0678E-03
             951               1     59.8842E-03     58.8959E-03    -30.3318E-03    -30.1815E-03
             952               1     57.0908E-03     56.5169E-03    -30.8386E-03    -30.7431E-03
             953               1     56.0991E-03     55.8004E-03    -31.4451E-03    -31.4369E-03
             954               1     54.7210E-03     54.4906E-03    -31.4144E-03    -31.3352E-03
             955               1     54.4423E-03     54.5523E-03    -31.3878E-03    -31.4206E-03
             956               1     55.1222E-03     55.2020E-03    -31.3654E-03    -31.2861E-03
             957               1     56.5556E-03     57.0009E-03    -31.2922E-03    -31.3535E-03
             958               1     59.1754E-03     59.5550E-03    -31.4036E-03    -31.3096E-03
             959               1     62.3675E-03     63.0973E-03    -31.4138E-03    -31.5181E-03
             960               1     66.3284E-03     67.0616E-03    -31.5858E-03    -31.4816E-03
             961               1     70.9449E-03     71.8494E-03    -31.5967E-03    -31.7483E-03
             962               1     75.3129E-03     76.6067E-03    -31.3846E-03    -31.3759E-03
             963               1     80.8530E-03     81.6807E-03    -30.9786E-03    -31.1032E-03
             964               1     84.4207E-03     86.3970E-03    -28.8600E-03    -29.3826E-03
             965               1     88.7391E-03     89.7549E-03    -26.4880E-03    -26.3871E-03
             966               1     66.3877E-03     63.8698E-03    -9.01281E-03    -8.42365E-03
             967               1     65.1235E-03     63.1091E-03    -18.4607E-03    -17.9003E-03
             968               1     62.6270E-03     60.9787E-03    -23.5291E-03    -23.2089E-03
             969               1     63.0258E-03     61.3456E-03    -28.7124E-03    -28.4110E-03
             970               1     58.2733E-03     57.1555E-03    -29.5941E-03    -29.3429E-03
             971               1     56.5952E-03     55.8197E-03    -30.4091E-03    -30.3192E-03
             972               1     54.1298E-03     53.5774E-03    -30.4514E-03    -30.3201E-03
             973               1     52.8017E-03     52.6781E-03    -30.3086E-03    -30.3169E-03
             974               1     52.5243E-03     52.4829E-03    -30.2857E-03    -30.2057E-03
             975               1     52.8709E-03     53.2713E-03    -30.0831E-03    -30.1417E-03
             976               1     54.7371E-03     55.1403E-03    -30.2221E-03    -30.1504E-03
             977               1     57.0317E-03     57.8898E-03    -30.1688E-03    -30.2896E-03
             978               1     60.6520E-03     61.4366E-03    -30.5197E-03    -30.4283E-03
             979               1     64.6318E-03     65.8526E-03    -30.6046E-03    -30.8241E-03
             980               1     69.3568E-03     70.5316E-03    -31.0556E-03    -30.9297E-03
             981               1     74.8340E-03     76.1742E-03    -31.1100E-03    -31.4241E-03
             982               1     79.8485E-03     81.5329E-03    -31.0226E-03    -30.9424E-03
             983               1     87.2034E-03     87.9322E-03    -30.5758E-03    -30.6912E-03
             984               1     91.8163E-03     93.7434E-03    -27.2812E-03    -28.0152E-03
             985               1     75.3436E-03     74.0660E-03    -9.60215E-03    -8.95291E-03
             986               1     72.2338E-03     70.1206E-03    -18.1876E-03    -17.8905E-03
             987               1     70.6170E-03     68.4143E-03    -27.1243E-03    -26.7313E-03
             988               1     61.1729E-03     59.4921E-03    -28.2539E-03    -27.8087E-03
             989               1     57.8277E-03     56.5479E-03    -28.9338E-03    -28.7918E-03
             990               1     53.9940E-03     52.9683E-03    -29.1747E-03    -28.9501E-03
             991               1     51.4476E-03     50.9415E-03    -28.8390E-03    -28.8128E-03
             992               1     50.2631E-03     49.9451E-03    -28.8954E-03    -28.7942E-03
             993               1     49.4773E-03     49.6711E-03    -28.5389E-03    -28.5756E-03
             994               1     50.4929E-03     50.8134E-03    -28.6852E-03    -28.6260E-03
             995               1     51.7814E-03     52.6027E-03    -28.5133E-03    -28.6086E-03
             996               1     54.7555E-03     55.5838E-03    -28.8699E-03    -28.8083E-03
             997               1     57.8893E-03     59.2316E-03    -28.8890E-03    -29.0834E-03
             998               1     62.3671E-03     63.5626E-03    -29.5071E-03    -29.3971E-03
             999               1     67.0262E-03     68.7386E-03    -29.6239E-03    -29.9770E-03
            1000               1     72.5673E-03     74.0295E-03    -30.4448E-03    -30.1876E-03
            1001               1     79.1112E-03     80.7922E-03    -30.4667E-03    -30.9365E-03
            1002               1     85.4189E-03     87.0867E-03    -30.8905E-03    -30.3698E-03
            1003               1     96.3612E-03     96.6446E-03    -30.6033E-03    -30.5056E-03
            1004               1     91.7651E-03     88.7583E-03    -9.26142E-03    -9.11537E-03
            1005               1     87.0575E-03     84.6464E-03    -26.2712E-03    -25.7925E-03
            1006               1     67.6172E-03     65.6069E-03    -27.5634E-03    -26.9547E-03
            1007               1     60.4100E-03     58.7381E-03    -26.9202E-03    -26.7966E-03
            1008               1     54.6871E-03     53.1736E-03    -27.5458E-03    -27.2482E-03
            1009               1     50.3326E-03     49.3510E-03    -26.7995E-03    -26.7618E-03
            1010               1     48.2793E-03     47.5498E-03    -27.0899E-03    -26.9676E-03
            1011               1     46.2886E-03     46.1159E-03    -26.5802E-03    -26.5927E-03
            1012               1     46.4751E-03     46.5759E-03    -26.8023E-03    -26.7497E-03
            1013               1     46.7407E-03     47.3725E-03    -26.5232E-03    -26.5765E-03
            1014               1     48.9405E-03     49.7517E-03    -26.8511E-03    -26.8147E-03
            1015               1     51.2268E-03     52.5270E-03    -26.7813E-03    -26.8971E-03
            1016               1     55.1103E-03     56.4142E-03    -27.3249E-03    -27.2694E-03
            1017               1     58.9697E-03     60.7578E-03    -27.3956E-03    -27.6321E-03
            1018               1     64.1927E-03     65.7610E-03    -28.2533E-03    -28.1013E-03
            1019               1     69.4701E-03     71.5573E-03    -28.3196E-03    -28.7491E-03
            1020               1     76.0850E-03     77.7065E-03    -29.6519E-03    -29.1535E-03
            1021               1     83.9159E-03     85.9464E-03    -29.5102E-03    -30.0758E-03
            1022               1     92.6981E-03     94.1544E-03    -31.4221E-03    -29.9777E-03
            1023               1     117.075E-03     116.543E-03    -22.3558E-03    -22.0310E-03
            1024               1     80.3463E-03     78.6650E-03    -28.4329E-03    -27.7865E-03
            1025               1     64.4096E-03     62.6646E-03    -23.7249E-03    -23.7686E-03
            1026               1     56.8921E-03     55.0600E-03    -25.3695E-03    -25.1224E-03
            1027               1     49.7393E-03     48.2400E-03    -23.9820E-03    -23.9923E-03
            1028               1     46.7989E-03     45.5721E-03    -24.7426E-03    -24.6497E-03
            1029               1     43.3889E-03     42.6805E-03    -24.1193E-03    -24.1268E-03
            1030               1     42.7450E-03     42.4611E-03    -24.5309E-03    -24.4967E-03
            1031               1     41.9465E-03     42.2227E-03    -24.1945E-03    -24.2113E-03
            1032               1     43.3176E-03     43.9889E-03    -24.5373E-03    -24.5210E-03
            1033               1     44.7730E-03     45.9177E-03    -24.4071E-03    -24.4411E-03
            1034               1     47.9390E-03     49.3361E-03    -24.8450E-03    -24.8280E-03
            1035               1     51.1626E-03     52.8932E-03    -24.8803E-03    -24.9526E-03
            1036               1     55.7484E-03     57.5642E-03    -25.5136E-03    -25.4723E-03
            1037               1     60.2930E-03     62.3225E-03    -25.6121E-03    -25.7653E-03
            1038               1     66.1953E-03     68.1618E-03    -26.5780E-03    -26.4293E-03
            1039               1     72.1337E-03     74.2761E-03    -26.5208E-03    -26.8272E-03
            1040               1     80.1284E-03     82.1726E-03    -28.3172E-03    -27.7567E-03
            1041               1     88.9919E-03     91.5293E-03    -27.6164E-03    -28.1380E-03
            1042               1     50.1147E-03     63.8297E-03    -8.43899E-03    -12.9769E-03
            1043               1     54.8927E-03     60.4313E-03    -15.9565E-03    -17.5536E-03
            1044               1     60.7938E-03     62.9351E-03    -23.3250E-03    -23.7241E-03
            1045               1     61.4903E-03     62.8530E-03    -27.1169E-03    -27.5490E-03
            1046               1     63.8939E-03     64.2971E-03    -31.7284E-03    -31.8065E-03
            1047               1     63.6502E-03     63.9768E-03    -34.0409E-03    -34.1747E-03
            1048               1     65.7609E-03     65.8000E-03    -37.0146E-03    -37.0215E-03
            1049               1     66.2279E-03     66.2803E-03    -38.1390E-03    -38.1674E-03
            1050               1     69.1782E-03     69.1399E-03    -39.7832E-03    -39.7638E-03
            1051               1     71.1140E-03     71.0627E-03    -39.8836E-03    -39.8695E-03
            1052               1     75.1870E-03     75.0491E-03    -40.3630E-03    -40.3185E-03
            1053               1     78.5290E-03     78.3428E-03    -39.4835E-03    -39.4523E-03
            1054               1     83.4680E-03     83.0768E-03    -38.8569E-03    -38.7631E-03
            1055               1     87.6218E-03     87.1782E-03    -36.8922E-03    -36.8613E-03
            1056               1     92.8601E-03     91.9659E-03    -35.0875E-03    -34.8978E-03
            1057               1     96.9948E-03     96.0950E-03    -31.7850E-03    -31.7807E-03
            1058               1     101.809E-03     100.080E-03    -28.6180E-03    -28.2688E-03
            1059               1     104.881E-03     103.284E-03    -23.5479E-03    -23.6364E-03
            1060               1     108.373E-03     105.609E-03    -18.7693E-03    -18.2467E-03
            1061               1     69.3985E-03     61.9443E-03    -16.1053E-03    -17.4208E-03
            1062               1     68.4948E-03     70.7330E-03    -17.8907E-03    -20.4783E-03
            1063               1     66.0445E-03     68.1585E-03    -22.1830E-03    -23.6990E-03
            1064               1     66.3680E-03     67.1755E-03    -26.9219E-03    -27.4508E-03
            1065               1     63.6696E-03     64.5533E-03    -29.3788E-03    -29.9427E-03
            1066               1     63.5902E-03     63.7243E-03    -32.7261E-03    -32.8436E-03
            1067               1     61.8142E-03     62.0609E-03    -34.0815E-03    -34.2554E-03
            1068               1     63.0680E-03     63.0316E-03    -36.1239E-03    -36.1170E-03
            1069               1     63.6148E-03     63.6390E-03    -36.5723E-03    -36.5791E-03
            1070               1     66.9634E-03     66.8945E-03    -37.5042E-03    -37.4336E-03
            1071               1     70.1041E-03     70.0706E-03    -37.1329E-03    -37.0660E-03
            1072               1     75.3949E-03     75.2111E-03    -37.1076E-03    -36.9527E-03
            1073               1     80.3834E-03     80.3234E-03    -35.8627E-03    -35.7701E-03
            1074               1     86.9454E-03     86.4828E-03    -34.9214E-03    -34.6075E-03
            1075               1     92.7163E-03     92.6312E-03    -32.5976E-03    -32.5298E-03
            1076               1     99.6967E-03     98.8598E-03    -30.6549E-03    -30.0866E-03
            1077               1     105.137E-03     105.096E-03    -26.9420E-03    -26.9831E-03
            1078               1     111.533E-03     110.578E-03    -23.7748E-03    -22.9869E-03
            1079               1     115.155E-03     115.574E-03    -18.3601E-03    -18.6945E-03
            1080               1     69.7667E-03     68.8452E-03    -14.2033E-03    -13.3511E-03
            1081               1     76.0764E-03     72.2375E-03    -20.7099E-03    -21.0005E-03
            1082               1     73.5464E-03     73.3184E-03    -23.1962E-03    -24.3820E-03
            1083               1     69.4672E-03     69.9022E-03    -26.1621E-03    -27.0236E-03
            1084               1     67.1717E-03     67.1129E-03    -29.5004E-03    -29.8601E-03
            1085               1     62.8766E-03     63.1897E-03    -31.0301E-03    -31.4119E-03
            1086               1     61.6871E-03     61.5774E-03    -33.3242E-03    -33.3971E-03
            1087               1     59.7308E-03     59.8111E-03    -33.9625E-03    -34.0555E-03
            1088               1     61.2027E-03     61.1640E-03    -35.1889E-03    -35.1483E-03
            1089               1     62.9823E-03     63.0464E-03    -35.1604E-03    -35.1128E-03
            1090               1     67.5659E-03     67.5874E-03    -35.5400E-03    -35.4137E-03
            1091               1     72.5498E-03     72.7436E-03    -34.8812E-03    -34.7721E-03
            1092               1     79.5295E-03     79.4855E-03    -34.5539E-03    -34.2944E-03
            1093               1     86.2757E-03     86.7073E-03    -33.1191E-03    -33.0137E-03
            1094               1     94.5730E-03     94.3910E-03    -32.0639E-03    -31.5914E-03
            1095               1     101.716E-03     102.542E-03    -29.5680E-03    -29.5652E-03
            1096               1     110.121E-03     110.047E-03    -27.5514E-03    -26.9058E-03
            1097               1     116.384E-03     117.818E-03    -23.7659E-03    -24.0029E-03
            1098               1     123.216E-03     124.239E-03    -20.0557E-03    -19.9982E-03
            1099               1     79.6916E-03     75.6425E-03    -12.4125E-03    -12.9050E-03
            1100               1     77.6853E-03     75.9411E-03    -18.9679E-03    -18.8131E-03
            1101               1     77.5515E-03     75.1591E-03    -23.6343E-03    -23.8127E-03
            1102               1     73.7915E-03     72.7700E-03    -26.6971E-03    -27.1729E-03
            1103               1     68.3177E-03     67.9920E-03    -28.7405E-03    -29.1603E-03
            1104               1     64.9538E-03     64.4519E-03    -31.2069E-03    -31.3709E-03
            1105               1     60.2531E-03     60.1799E-03    -32.0017E-03    -32.1742E-03
            1106               1     59.1303E-03     58.9601E-03    -33.3971E-03    -33.4092E-03
            1107               1     58.4047E-03     58.4485E-03    -33.5487E-03    -33.5460E-03
            1108               1     61.1141E-03     61.2407E-03    -34.1356E-03    -34.0678E-03
            1109               1     65.0184E-03     65.3262E-03    -33.8648E-03    -33.7740E-03
            1110               1     71.3780E-03     71.6746E-03    -33.9076E-03    -33.7540E-03
            1111               1     78.3312E-03     79.0321E-03    -33.1748E-03    -33.0595E-03
            1112               1     87.0614E-03     87.3927E-03    -32.7425E-03    -32.4530E-03
            1113               1     95.2458E-03     96.5169E-03    -31.2898E-03    -31.2503E-03
            1114               1     104.974E-03     105.410E-03    -30.1958E-03    -29.7615E-03
            1115               1     113.012E-03     114.969E-03    -27.6467E-03    -27.8419E-03
            1116               1     121.945E-03     123.066E-03    -25.2727E-03    -25.0458E-03
            1117               1     128.936E-03     130.793E-03    -21.5006E-03    -21.9965E-03
            1118               1     84.5929E-03     81.9273E-03    -11.1014E-03    -10.2645E-03
            1119               1     83.7848E-03     80.3508E-03    -17.6238E-03    -17.5879E-03
            1120               1     79.9459E-03     77.8518E-03    -22.9549E-03    -22.8546E-03
            1121               1     75.7478E-03     73.8607E-03    -26.3021E-03    -26.3602E-03
            1122               1     71.1085E-03     69.7722E-03    -29.2556E-03    -29.3785E-03
            1123               1     64.5068E-03     63.8260E-03    -30.4213E-03    -30.5442E-03
            1124               1     60.9806E-03     60.3784E-03    -31.9851E-03    -32.0223E-03
            1125               1     57.2287E-03     57.0183E-03    -32.2393E-03    -32.2505E-03
            1126               1     57.1979E-03     57.2213E-03    -32.8707E-03    -32.8536E-03
            1127               1     58.8944E-03     59.1490E-03    -32.7978E-03    -32.7317E-03
            1128               1     63.5374E-03     64.0342E-03    -32.9777E-03    -32.9222E-03
            1129               1     69.8101E-03     70.5941E-03    -32.7105E-03    -32.6062E-03
            1130               1     78.0179E-03     78.7679E-03    -32.6291E-03    -32.5221E-03
            1131               1     86.6064E-03     88.0251E-03    -32.0271E-03    -31.9446E-03
            1132               1     96.8485E-03     97.7142E-03    -31.6072E-03    -31.4269E-03
            1133               1     106.025E-03     108.219E-03    -30.2319E-03    -30.3253E-03
            1134               1     116.655E-03     117.824E-03    -28.9734E-03    -28.7998E-03
            1135               1     125.374E-03     127.832E-03    -26.2243E-03    -26.6491E-03
            1136               1     133.741E-03     135.847E-03    -23.0374E-03    -23.2059E-03
            1137               1     93.5718E-03     89.9523E-03    -9.11281E-03    -8.89584E-03
            1138               1     87.7009E-03     85.0084E-03    -16.7702E-03    -16.1694E-03
            1139               1     83.7474E-03     80.8304E-03    -21.8553E-03    -21.6983E-03
            1140               1     78.5339E-03     76.2541E-03    -26.6748E-03    -26.4620E-03
            1141               1     71.0754E-03     69.3901E-03    -28.6405E-03    -28.5417E-03
            1142               1     65.9192E-03     64.5589E-03    -30.6952E-03    -30.6529E-03
            1143               1     59.3594E-03     58.5723E-03    -31.0947E-03    -31.0257E-03
            1144               1     56.4353E-03     56.0545E-03    -31.6843E-03    -31.6759E-03
            1145               1     55.1192E-03     55.0894E-03    -31.6816E-03    -31.6093E-03
            1146               1     57.0850E-03     57.5523E-03    -31.8008E-03    -31.8049E-03
            1147               1     61.6973E-03     62.4131E-03    -31.7678E-03    -31.6818E-03
            1148               1     68.4485E-03     69.4728E-03    -31.7850E-03    -31.8060E-03
            1149               1     76.7407E-03     78.1442E-03    -31.7469E-03    -31.6530E-03
            1150               1     86.5561E-03     87.8449E-03    -31.7011E-03    -31.7411E-03
            1151               1     96.3182E-03     98.4814E-03    -31.3868E-03    -31.3507E-03
            1152               1     107.831E-03     109.183E-03    -31.0114E-03    -31.0479E-03
            1153               1     117.742E-03     120.563E-03    -29.6007E-03    -29.8592E-03
            1154               1     128.906E-03     130.567E-03    -27.9676E-03    -27.9432E-03
            1155               1     138.451E-03     140.422E-03    -24.2940E-03    -24.9168E-03
            1156               1     99.5771E-03     96.9896E-03    -8.12312E-03    -7.44119E-03
            1157               1     94.9550E-03     91.4183E-03    -15.2011E-03    -14.8943E-03
            1158               1     88.1183E-03     85.2366E-03    -22.6889E-03    -22.1179E-03
            1159               1     79.4961E-03     76.9750E-03    -25.8721E-03    -25.5817E-03
            1160               1     73.2539E-03     71.0101E-03    -29.2664E-03    -28.9989E-03
            1161               1     64.0450E-03     62.4523E-03    -29.9061E-03    -29.6410E-03
            1162               1     58.6258E-03     57.5713E-03    -30.4612E-03    -30.3945E-03
            1163               1     54.0855E-03     53.4911E-03    -30.4856E-03    -30.3402E-03
            1164               1     52.8170E-03     52.9506E-03    -30.3888E-03    -30.4040E-03
            1165               1     54.8636E-03     55.3251E-03    -30.4264E-03    -30.3381E-03
            1166               1     59.3037E-03     60.3864E-03    -30.3335E-03    -30.4140E-03
            1167               1     66.5376E-03     67.8448E-03    -30.5671E-03    -30.4865E-03
            1168               1     75.1322E-03     76.7437E-03    -30.6126E-03    -30.7845E-03
            1169               1     84.9066E-03     86.9080E-03    -30.9962E-03    -30.8981E-03
            1170               1     96.0491E-03     97.8333E-03    -31.0711E-03    -31.3460E-03
            1171               1     106.702E-03     109.407E-03    -31.1598E-03    -31.1005E-03
            1172               1     119.589E-03     121.141E-03    -30.8396E-03    -31.0558E-03
            1173               1     130.383E-03     133.326E-03    -29.0182E-03    -29.4125E-03
            1174               1     142.207E-03     144.173E-03    -26.7209E-03    -26.4545E-03
            1175               1     110.734E-03     106.534E-03    -6.48557E-03    -5.91104E-03
            1176               1     101.522E-03     98.7318E-03    -16.7444E-03    -15.9640E-03
            1177               1     91.6269E-03     88.5210E-03    -21.8103E-03    -21.4644E-03
            1178               1     83.8773E-03     80.8418E-03    -27.7654E-03    -27.1861E-03
            1179               1     70.8815E-03     68.5789E-03    -28.5764E-03    -28.0628E-03
            1180               1     63.2593E-03     61.4488E-03    -29.0918E-03    -28.9009E-03
            1181               1     55.5974E-03     54.2486E-03    -29.1430E-03    -28.8563E-03
            1182               1     51.0324E-03     50.5404E-03    -28.6976E-03    -28.6788E-03
            1183               1     49.9227E-03     49.8833E-03    -28.7343E-03    -28.6054E-03
            1184               1     51.3280E-03     52.1857E-03    -28.3774E-03    -28.4576E-03
            1185               1     56.7201E-03     57.8512E-03    -28.6761E-03    -28.6078E-03
            1186               1     63.5095E-03     65.2467E-03    -28.6098E-03    -28.8093E-03
            1187               1     72.6875E-03     74.5557E-03    -29.2758E-03    -29.1932E-03
            1188               1     82.7007E-03     84.8489E-03    -29.4580E-03    -29.8342E-03
            1189               1     93.5565E-03     95.9787E-03    -30.4342E-03    -30.2597E-03
            1190               1     105.929E-03     108.044E-03    -30.6773E-03    -31.2042E-03
            1191               1     117.495E-03     120.434E-03    -31.3253E-03    -31.0638E-03
            1192               1     132.655E-03     133.940E-03    -31.2235E-03    -31.3858E-03
            1193               1     145.100E-03     147.588E-03    -28.3896E-03    -28.9731E-03
            1194               1     118.516E-03     117.080E-03    -7.12747E-03    -6.56684E-03
            1195               1     110.592E-03     106.587E-03    -15.9480E-03    -15.6693E-03
            1196               1     100.273E-03     96.6985E-03    -26.8995E-03    -25.9567E-03
            1197               1     80.4060E-03     77.7039E-03    -27.5621E-03    -26.7364E-03
            1198               1     70.1423E-03     67.7724E-03    -27.5419E-03    -27.2273E-03
            1199               1     59.3096E-03     57.2541E-03    -27.6185E-03    -27.1609E-03
            1200               1     51.5906E-03     50.3423E-03    -26.6266E-03    -26.5566E-03
            1201               1     47.1950E-03     46.4163E-03    -26.6753E-03    -26.4764E-03
            1202               1     45.0425E-03     45.3538E-03    -25.9432E-03    -25.9904E-03
            1203               1     47.8411E-03     48.6356E-03    -26.2230E-03    -26.1469E-03
            1204               1     52.3016E-03     53.9422E-03    -25.9228E-03    -26.0789E-03
            1205               1     60.3193E-03     62.1083E-03    -26.6014E-03    -26.5516E-03
            1206               1     68.9368E-03     71.2411E-03    -26.6902E-03    -27.0189E-03
            1207               1     79.4348E-03     81.7030E-03    -27.8957E-03    -27.7684E-03
            1208               1     90.4797E-03     93.0280E-03    -28.2463E-03    -28.8322E-03
            1209               1     102.284E-03     104.852E-03    -30.0222E-03    -29.6294E-03
            1210               1     116.004E-03     118.295E-03    -30.4567E-03    -31.2120E-03
            1211               1     128.907E-03     131.739E-03    -32.1921E-03    -31.3391E-03
            1212               1     148.341E-03     149.015E-03    -32.7387E-03    -32.5770E-03
            1213               1     139.525E-03     132.751E-03    -6.09341E-03    -5.60174E-03
            1214               1     126.450E-03     123.125E-03    -27.7170E-03    -26.2053E-03
            1215               1     93.5112E-03     91.0016E-03    -28.0075E-03    -26.7890E-03
            1216               1     79.0895E-03     76.6443E-03    -25.7262E-03    -25.3765E-03
            1217               1     65.0805E-03     62.6521E-03    -25.9269E-03    -25.3521E-03
            1218               1     54.1982E-03     52.2894E-03    -24.0203E-03    -23.9293E-03
            1219               1     46.8092E-03     45.2231E-03    -24.1649E-03    -23.9198E-03
            1220               1     40.8895E-03     40.3411E-03    -22.9822E-03    -22.9948E-03
            1221               1     40.4163E-03     40.6056E-03    -23.2590E-03    -23.1695E-03
            1222               1     41.9044E-03     43.1917E-03    -22.6754E-03    -22.7616E-03
            1223               1     48.1963E-03     49.8947E-03    -23.2664E-03    -23.2344E-03
            1224               1     55.3166E-03     57.6194E-03    -23.1772E-03    -23.3731E-03
            1225               1     65.0614E-03     67.3709E-03    -24.2537E-03    -24.2027E-03
            1226               1     74.9297E-03     77.5864E-03    -24.5456E-03    -24.9398E-03
            1227               1     86.3265E-03     88.7915E-03    -26.3219E-03    -26.1140E-03
            1228               1     98.1228E-03     100.825E-03    -26.8390E-03    -27.5363E-03
            1229               1     110.966E-03     113.448E-03    -29.6569E-03    -28.9388E-03
            1230               1     126.115E-03     128.559E-03    -30.2510E-03    -31.1687E-03
            1231               1     141.196E-03     143.724E-03    -34.3802E-03    -32.3963E-03
            1232               1     166.098E-03     169.120E-03    -25.9733E-03    -24.0273E-03
            1233               1     112.404E-03     111.787E-03    -31.2975E-03    -29.9572E-03
            1234               1     88.9126E-03     87.2887E-03    -22.7666E-03    -22.6806E-03
            1235               1     72.9387E-03     70.7426E-03    -23.7761E-03    -23.3255E-03
            1236               1     58.5915E-03     56.2692E-03    -20.5788E-03    -20.5640E-03
            1237               1     48.8982E-03     46.6881E-03    -21.0169E-03    -20.8443E-03
            1238               1     39.4253E-03     37.7927E-03    -19.3938E-03    -19.4005E-03
            1239               1     35.2345E-03     34.4678E-03    -19.7420E-03    -19.6781E-03
            1240               1     32.8599E-03     33.3914E-03    -18.8952E-03    -18.9217E-03
            1241               1     36.5994E-03     38.0553E-03    -19.4047E-03    -19.3832E-03
            1242               1     41.9665E-03     44.1915E-03    -19.1205E-03    -19.1782E-03
            1243               1     50.7328E-03     53.2201E-03    -19.9788E-03    -19.9642E-03
            1244               1     59.7548E-03     62.4493E-03    -20.1611E-03    -20.2829E-03
            1245               1     70.4845E-03     73.1582E-03    -21.5460E-03    -21.4943E-03
            1246               1     81.2039E-03     83.8123E-03    -22.0881E-03    -22.3368E-03
            1247               1     93.2229E-03     95.7539E-03    -24.2895E-03    -24.0791E-03
            1248               1     105.618E-03     107.922E-03    -25.0092E-03    -25.4903E-03
            1249               1     119.668E-03     122.142E-03    -28.8341E-03    -28.0711E-03
            1250               1     135.691E-03     138.159E-03    -29.2914E-03    -30.0969E-03
            1251               1     97.2961E-03     112.707E-03    -3.34620E-03    -9.02434E-03
            1252               1     84.4130E-03     90.6918E-03    -11.1771E-03    -13.3395E-03
            1253               1     84.8076E-03     86.9679E-03    -22.2354E-03    -22.7107E-03
            1254               1     79.0357E-03     80.2561E-03    -26.6723E-03    -27.2803E-03
            1255               1     77.7216E-03     77.6926E-03    -33.1136E-03    -33.2041E-03
            1256               1     73.2771E-03     73.2802E-03    -35.8783E-03    -36.0741E-03
            1257               1     73.4866E-03     73.2243E-03    -39.9445E-03    -39.9479E-03
            1258               1     72.1668E-03     72.1342E-03    -41.2772E-03    -41.3234E-03
            1259               1     75.6292E-03     75.6477E-03    -43.5345E-03    -43.5024E-03
            1260               1     78.4903E-03     78.6963E-03    -43.5823E-03    -43.5681E-03
            1261               1     85.2514E-03     85.4623E-03    -44.2886E-03    -44.2192E-03
            1262               1     91.5556E-03     91.8505E-03    -43.0692E-03    -43.0336E-03
            1263               1     100.537E-03     100.596E-03    -42.3287E-03    -42.1855E-03
            1264               1     108.750E-03     108.856E-03    -39.6818E-03    -39.6567E-03
            1265               1     118.772E-03     118.247E-03    -37.4441E-03    -37.1567E-03
            1266               1     127.482E-03     127.099E-03    -33.0028E-03    -33.0505E-03
            1267               1     137.656E-03     136.092E-03    -29.1006E-03    -28.5682E-03
            1268               1     145.614E-03     144.553E-03    -22.1554E-03    -22.4536E-03
            1269               1     155.493E-03     152.822E-03    -16.4056E-03    -15.5908E-03
            1270               1     114.748E-03     103.522E-03    -17.2762E-03    -18.9117E-03
            1271               1     106.151E-03     107.164E-03    -14.5380E-03    -17.8729E-03
            1272               1     92.1686E-03     93.8220E-03    -19.7227E-03    -21.7653E-03
            1273               1     87.1243E-03     87.3633E-03    -26.0807E-03    -26.7678E-03
            1274               1     77.8835E-03     78.4027E-03    -29.0719E-03    -29.8613E-03
            1275               1     73.7421E-03     73.3949E-03    -33.6493E-03    -33.7998E-03
            1276               1     67.7810E-03     67.7860E-03    -35.3063E-03    -35.5621E-03
            1277               1     67.4441E-03     67.2164E-03    -38.1200E-03    -38.1009E-03
            1278               1     67.1917E-03     67.3023E-03    -38.6380E-03    -38.6598E-03
            1279               1     72.2444E-03     72.3742E-03    -39.9556E-03    -39.8437E-03
            1280               1     77.9087E-03     78.3027E-03    -39.4044E-03    -39.3257E-03
            1281               1     87.2268E-03     87.4697E-03    -39.4434E-03    -39.2050E-03
            1282               1     96.4981E-03     97.0727E-03    -37.7249E-03    -37.6222E-03
            1283               1     108.164E-03     108.178E-03    -36.5707E-03    -36.0965E-03
            1284               1     118.857E-03     119.527E-03    -33.3938E-03    -33.3622E-03
            1285               1     131.519E-03     131.125E-03    -30.9901E-03    -30.1423E-03
            1286               1     142.105E-03     142.971E-03    -25.9051E-03    -26.1334E-03
            1287               1     155.009E-03     154.481E-03    -22.0274E-03    -20.8705E-03
            1288               1     164.007E-03     165.630E-03    -14.6029E-03    -15.4951E-03
            1289               1     111.318E-03     110.114E-03    -14.7708E-03    -13.9493E-03
            1290               1     113.936E-03     108.100E-03    -20.7434E-03    -21.1537E-03
            1291               1     104.156E-03     102.622E-03    -21.3103E-03    -22.9012E-03
            1292               1     91.6720E-03     91.3719E-03    -24.8080E-03    -26.0034E-03
            1293               1     83.6650E-03     82.8185E-03    -28.9279E-03    -29.4105E-03
            1294               1     73.0480E-03     72.9154E-03    -30.8076E-03    -31.3548E-03
            1295               1     67.7925E-03     67.2043E-03    -33.8756E-03    -33.9658E-03
            1296               1     62.3402E-03     62.2797E-03    -34.6699E-03    -34.8153E-03
            1297               1     63.3087E-03     63.2500E-03    -36.3705E-03    -36.2993E-03
            1298               1     66.1511E-03     66.5108E-03    -36.2970E-03    -36.2472E-03
            1299               1     74.0847E-03     74.4781E-03    -36.8634E-03    -36.6645E-03
            1300               1     83.2656E-03     84.0976E-03    -35.9334E-03    -35.8060E-03
            1301               1     95.4591E-03     95.9422E-03    -35.5525E-03    -35.1543E-03
            1302               1     107.437E-03     108.731E-03    -33.5673E-03    -33.4659E-03
            1303               1     121.656E-03     122.031E-03    -32.2523E-03    -31.5405E-03
            1304               1     134.275E-03     136.171E-03    -28.8677E-03    -28.9567E-03
            1305               1     149.197E-03     149.666E-03    -26.3909E-03    -25.4353E-03
            1306               1     161.143E-03     163.842E-03    -21.4960E-03    -21.9837E-03
            1307               1     175.748E-03     177.197E-03    -16.9869E-03    -16.9563E-03
            1308               1     122.505E-03     116.623E-03    -12.8247E-03    -13.5422E-03
            1309               1     114.603E-03     111.980E-03    -18.5081E-03    -18.5323E-03
            1310               1     109.016E-03     105.206E-03    -23.0788E-03    -23.3795E-03
            1311               1     98.4066E-03     96.1935E-03    -25.4954E-03    -26.1794E-03
            1312               1     85.6375E-03     84.5193E-03    -27.8285E-03    -28.4368E-03
            1313               1     76.4634E-03     75.1327E-03    -30.7550E-03    -30.9789E-03
            1314               1     65.8651E-03     65.3543E-03    -31.7327E-03    -31.9909E-03
            1315               1     61.3594E-03     60.8353E-03    -33.5645E-03    -33.5685E-03
            1316               1     58.9042E-03     58.9953E-03    -33.7564E-03    -33.7690E-03
            1317               1     63.0750E-03     63.4400E-03    -34.5758E-03    -34.4616E-03
            1318               1     70.3315E-03     71.1937E-03    -34.1919E-03    -34.0863E-03
            1319               1     81.5886E-03     82.4290E-03    -34.2800E-03    -34.0352E-03
            1320               1     93.9260E-03     95.4976E-03    -33.2543E-03    -33.1250E-03
            1321               1     108.690E-03     109.640E-03    -32.7121E-03    -32.2640E-03
            1322               1     122.645E-03     125.028E-03    -30.7581E-03    -30.7431E-03
            1323               1     138.906E-03     139.956E-03    -29.4165E-03    -28.7610E-03
            1324               1     152.866E-03     156.096E-03    -26.2537E-03    -26.5376E-03
            1325               1     168.866E-03     170.563E-03    -23.4868E-03    -23.1660E-03
            1326               1     182.531E-03     185.139E-03    -19.7702E-03    -20.1891E-03
            1327               1     126.233E-03     122.666E-03    -10.8665E-03    -10.0912E-03
            1328               1     121.700E-03     116.721E-03    -17.2844E-03    -17.3320E-03
            1329               1     111.490E-03     108.323E-03    -22.1263E-03    -22.1547E-03
            1330               1     101.124E-03     98.0537E-03    -25.5099E-03    -25.6539E-03
            1331               1     89.7880E-03     87.3231E-03    -28.3775E-03    -28.5744E-03
            1332               1     76.1605E-03     74.7159E-03    -29.6678E-03    -29.8650E-03
            1333               1     67.1196E-03     65.7625E-03    -31.4711E-03    -31.5153E-03
            1334               1     58.5754E-03     58.0425E-03    -31.7830E-03    -31.8139E-03
            1335               1     56.9061E-03     56.8708E-03    -32.5865E-03    -32.5463E-03
            1336               1     59.7329E-03     60.3376E-03    -32.4928E-03    -32.4183E-03
            1337               1     68.0900E-03     69.0963E-03    -32.7403E-03    -32.6385E-03
            1338               1     79.5024E-03     81.0929E-03    -32.3655E-03    -32.2449E-03
            1339               1     93.6308E-03     95.0413E-03    -32.2637E-03    -32.0785E-03
            1340               1     108.195E-03     110.691E-03    -31.4576E-03    -31.3681E-03
            1341               1     124.976E-03     126.497E-03    -30.9482E-03    -30.6510E-03
            1342               1     140.234E-03     143.695E-03    -29.3076E-03    -29.4161E-03
            1343               1     157.723E-03     159.528E-03    -27.9088E-03    -27.6327E-03
            1344               1     172.844E-03     176.364E-03    -25.1356E-03    -25.5178E-03
            1345               1     187.624E-03     190.661E-03    -21.9596E-03    -22.1981E-03
            1346               1     136.213E-03     131.076E-03    -8.29843E-03    -8.11138E-03
            1347               1     124.936E-03     121.306E-03    -15.9411E-03    -15.4071E-03
            1348               1     116.154E-03     111.863E-03    -21.0333E-03    -20.9046E-03
            1349               1     104.273E-03     100.847E-03    -25.8690E-03    -25.6682E-03
            1350               1     89.9376E-03     87.2281E-03    -27.8319E-03    -27.7364E-03
            1351               1     78.2701E-03     75.8478E-03    -29.8950E-03    -29.8414E-03
            1352               1     65.0030E-03     63.5257E-03    -30.2921E-03    -30.2105E-03
            1353               1     57.5309E-03     56.6387E-03    -30.8800E-03    -30.8559E-03
            1354               1     53.9123E-03     53.8534E-03    -30.8733E-03    -30.7860E-03
            1355               1     57.0383E-03     57.8534E-03    -30.9872E-03    -30.9740E-03
            1356               1     65.6598E-03     67.0458E-03    -30.9480E-03    -30.8483E-03
            1357               1     77.7797E-03     79.4905E-03    -30.9594E-03    -30.9613E-03
            1358               1     92.0950E-03     94.4883E-03    -30.9185E-03    -30.8116E-03
            1359               1     108.354E-03     110.340E-03    -30.8723E-03    -30.8915E-03
            1360               1     124.297E-03     127.664E-03    -30.5800E-03    -30.5266E-03
            1361               1     142.601E-03     144.596E-03    -30.2307E-03    -30.2454E-03
            1362               1     158.798E-03     162.836E-03    -28.9269E-03    -29.1457E-03
            1363               1     176.623E-03     179.049E-03    -27.4118E-03    -27.3651E-03
            1364               1     192.631E-03     195.205E-03    -24.0105E-03    -24.5654E-03
            1365               1     141.462E-03     137.986E-03    -6.67058E-03    -6.11179E-03
            1366               1     133.372E-03     128.297E-03    -13.8963E-03    -13.5669E-03
            1367               1     120.320E-03     116.411E-03    -21.8942E-03    -21.2545E-03
            1368               1     105.418E-03     101.739E-03    -25.0378E-03    -24.6871E-03
            1369               1     92.4462E-03     89.0322E-03    -28.5456E-03    -28.1903E-03
            1370               1     75.7662E-03     73.2732E-03    -29.0565E-03    -28.6983E-03
            1371               1     64.2398E-03     62.2918E-03    -29.3748E-03    -29.2728E-03
            1372               1     54.3285E-03     53.2270E-03    -29.3363E-03    -29.1422E-03
            1373               1     50.7042E-03     50.7907E-03    -29.0606E-03    -29.0668E-03
            1374               1     54.1611E-03     55.0325E-03    -29.1098E-03    -29.0019E-03
            1375               1     62.5635E-03     64.3100E-03    -28.9398E-03    -29.0314E-03
            1376               1     75.5186E-03     77.7067E-03    -29.2714E-03    -29.1821E-03
            1377               1     90.2963E-03     92.6465E-03    -29.3321E-03    -29.5433E-03
            1378               1     106.318E-03     109.397E-03    -29.9302E-03    -29.8141E-03
            1379               1     124.098E-03     126.548E-03    -30.1154E-03    -30.4651E-03
            1380               1     140.917E-03     144.846E-03    -30.5661E-03    -30.4502E-03
            1381               1     160.631E-03     162.796E-03    -30.4993E-03    -30.7762E-03
            1382               1     177.727E-03     181.698E-03    -29.0465E-03    -29.3830E-03
            1383               1     195.760E-03     198.632E-03    -27.1301E-03    -26.7493E-03
            1384               1     154.167E-03     148.117E-03    -4.45468E-03    -3.67190E-03
            1385               1     139.495E-03     135.940E-03    -15.5730E-03    -14.7059E-03
            1386               1     124.320E-03     119.882E-03    -20.7353E-03    -20.2993E-03
            1387               1     109.879E-03     105.677E-03    -27.3767E-03    -26.5666E-03
            1388               1     88.9350E-03     85.7320E-03    -27.8938E-03    -27.1677E-03
            1389               1     74.8015E-03     71.9741E-03    -27.9519E-03    -27.6752E-03
            1390               1     60.1057E-03     57.9323E-03    -27.8180E-03    -27.4174E-03
            1391               1     50.3584E-03     49.2928E-03    -26.9331E-03    -26.8948E-03
            1392               1     46.8997E-03     46.8015E-03    -26.9255E-03    -26.7550E-03
            1393               1     49.4945E-03     50.8518E-03    -26.3324E-03    -26.4290E-03
            1394               1     59.5380E-03     61.4289E-03    -26.7390E-03    -26.6621E-03
            1395               1     71.9752E-03     74.4895E-03    -26.6273E-03    -26.8843E-03
            1396               1     87.4040E-03     90.2182E-03    -27.5873E-03    -27.4990E-03
            1397               1     103.829E-03     106.672E-03    -27.8939E-03    -28.3918E-03
            1398               1     120.808E-03     124.293E-03    -29.4063E-03    -29.1887E-03
            1399               1     139.802E-03     142.510E-03    -29.9555E-03    -30.6662E-03
            1400               1     157.337E-03     161.443E-03    -31.3615E-03    -30.9810E-03
            1401               1     179.343E-03     181.158E-03    -31.8266E-03    -32.0561E-03
            1402               1     198.060E-03     201.268E-03    -29.4342E-03    -29.9819E-03
            1403               1     160.986E-03     159.412E-03    -4.90877E-03    -4.49139E-03
            1404               1     150.223E-03     144.306E-03    -14.2774E-03    -13.9036E-03
            1405               1     133.160E-03     128.476E-03    -27.2237E-03    -25.7972E-03
            1406               1     104.293E-03     100.882E-03    -27.3428E-03    -26.1280E-03
            1407               1     87.7161E-03     84.4632E-03    -26.5327E-03    -26.0644E-03
            1408               1     69.2382E-03     66.3491E-03    -26.2585E-03    -25.6025E-03
            1409               1     55.1348E-03     53.0068E-03    -24.4888E-03    -24.3794E-03
            1410               1     45.1830E-03     43.7780E-03    -24.3819E-03    -24.1068E-03
            1411               1     40.3128E-03     40.6621E-03    -23.1765E-03    -23.2312E-03
            1412               1     45.2245E-03     46.5779E-03    -23.5025E-03    -23.4087E-03
            1413               1     54.2140E-03     56.6627E-03    -23.0226E-03    -23.2252E-03
            1414               1     68.3383E-03     71.0049E-03    -23.9778E-03    -23.9301E-03
            1415               1     83.1612E-03     86.1923E-03    -24.1405E-03    -24.5784E-03
            1416               1     99.7898E-03     102.937E-03    -25.9159E-03    -25.7742E-03
            1417               1     117.142E-03     120.269E-03    -26.5756E-03    -27.3685E-03
            1418               1     134.750E-03     138.266E-03    -29.2947E-03    -28.8118E-03
            1419               1     154.969E-03     157.727E-03    -30.2971E-03    -31.3335E-03
            1420               1     173.473E-03     177.380E-03    -33.2961E-03    -32.2100E-03
            1421               1     200.063E-03     201.098E-03    -34.8545E-03    -34.6687E-03
            1422               1     186.748E-03     176.261E-03    -3.29462E-03    -2.40234E-03
            1423               1     166.950E-03     163.008E-03    -29.5879E-03    -27.1062E-03
            1424               1     122.387E-03     119.654E-03    -28.9338E-03    -27.0687E-03
            1425               1     102.067E-03     99.1457E-03    -24.9995E-03    -24.4485E-03
            1426               1     80.3622E-03     77.3632E-03    -24.6621E-03    -23.8193E-03
            1427               1     63.0916E-03     60.3664E-03    -21.5163E-03    -21.3755E-03
            1428               1     48.7253E-03     46.2257E-03    -21.3606E-03    -21.0137E-03
            1429               1     36.8824E-03     35.6485E-03    -19.4092E-03    -19.4195E-03
            1430               1     34.1474E-03     34.3952E-03    -19.6215E-03    -19.5028E-03
            1431               1     37.6463E-03     39.7112E-03    -18.6635E-03    -18.7747E-03
            1432               1     49.5469E-03     52.1562E-03    -19.4463E-03    -19.4143E-03
            1433               1     62.7511E-03     65.8654E-03    -19.3183E-03    -19.5786E-03
            1434               1     78.6829E-03     81.7889E-03    -20.8930E-03    -20.8442E-03
            1435               1     94.6563E-03     97.8834E-03    -21.4498E-03    -21.9825E-03
            1436               1     111.786E-03     114.938E-03    -24.1233E-03    -23.8814E-03
            1437               1     129.580E-03     132.662E-03    -25.2002E-03    -26.1532E-03
            1438               1     147.804E-03     150.981E-03    -29.4545E-03    -28.5812E-03
            1439               1     169.233E-03     171.949E-03    -30.9283E-03    -32.1988E-03
            1440               1     189.420E-03     192.820E-03    -37.1601E-03    -34.7195E-03
            1441               1     214.682E-03     221.376E-03    -29.7937E-03    -26.2747E-03
            1442               1     145.656E-03     146.287E-03    -34.5668E-03    -32.5210E-03
            1443               1     116.084E-03     114.790E-03    -22.3025E-03    -22.1028E-03
            1444               1     93.0164E-03     90.7508E-03    -22.6494E-03    -21.9898E-03
            1445               1     72.7766E-03     69.9209E-03    -17.6153E-03    -17.5795E-03
            1446               1     56.2113E-03     53.2096E-03    -17.5986E-03    -17.3533E-03
            1447               1     39.9461E-03     37.1808E-03    -14.8867E-03    -14.8919E-03
            1448               1     29.2981E-03     27.6278E-03    -15.0308E-03    -14.9433E-03
            1449               1     23.7017E-03     24.5350E-03    -13.5823E-03    -13.6162E-03
            1450               1     31.2442E-03     33.7412E-03    -14.1580E-03    -14.1321E-03
            1451               1     42.7042E-03     45.9691E-03    -13.6713E-03    -13.7474E-03
            1452               1     57.8662E-03     61.2360E-03    -14.8986E-03    -14.8851E-03
            1453               1     73.0214E-03     76.3645E-03    -15.2440E-03    -15.4075E-03
            1454               1     89.4337E-03     92.6921E-03    -17.3644E-03    -17.3065E-03
            1455               1     105.834E-03     108.759E-03    -18.4332E-03    -18.7698E-03
            1456               1     123.082E-03     125.973E-03    -21.8543E-03    -21.6014E-03
            1457               1     141.022E-03     143.316E-03    -23.4748E-03    -24.1255E-03
            1458               1     160.015E-03     162.712E-03    -29.2568E-03    -28.3276E-03
            1459               1     181.881E-03     184.137E-03    -30.9659E-03    -32.0457E-03
            1460               1     144.683E-03     156.954E-03     4.40927E-03    -948.770E-06
            1461               1     118.100E-03     122.364E-03    -4.49023E-03    -6.64689E-03
            1462               1     112.868E-03     113.446E-03    -18.1425E-03    -18.5417E-03
            1463               1     101.855E-03     101.745E-03    -25.3892E-03    -25.8968E-03
            1464               1     93.8144E-03     92.7292E-03    -31.9868E-03    -32.0444E-03
            1465               1     86.0176E-03     85.1463E-03    -37.1766E-03    -37.2877E-03
            1466               1     79.5890E-03     78.7382E-03    -40.4754E-03    -40.4335E-03
            1467               1     77.2805E-03     76.9622E-03    -43.4391E-03    -43.4640E-03
            1468               1     77.7124E-03     77.6728E-03    -44.8202E-03    -44.7485E-03
            1469               1     83.1036E-03     83.5951E-03    -45.9839E-03    -46.0033E-03
            1470               1     91.3186E-03     91.8761E-03    -46.0067E-03    -45.9177E-03
            1471               1     102.596E-03     103.556E-03    -45.6984E-03    -45.7200E-03
            1472               1     115.487E-03     116.156E-03    -44.4249E-03    -44.2927E-03
            1473               1     129.530E-03     130.531E-03    -42.5889E-03    -42.5837E-03
            1474               1     144.382E-03     144.674E-03    -39.7174E-03    -39.4978E-03
            1475               1     158.917E-03     159.500E-03    -35.8005E-03    -35.7337E-03
            1476               1     174.279E-03     173.520E-03    -30.8446E-03    -30.4298E-03
            1477               1     187.374E-03     187.229E-03    -23.5167E-03    -23.6001E-03
            1478               1     202.967E-03     200.653E-03    -16.3247E-03    -15.5042E-03
            1479               1     155.849E-03     142.921E-03    -14.7097E-03    -16.1784E-03
            1480               1     147.525E-03     145.962E-03    -8.53501E-03    -11.6675E-03
            1481               1     123.474E-03     123.386E-03    -16.7781E-03    -18.5540E-03
            1482               1     112.896E-03     111.676E-03    -23.0339E-03    -23.6381E-03
            1483               1     97.7298E-03     96.7793E-03    -28.8313E-03    -29.3437E-03
            1484               1     85.2836E-03     83.9473E-03    -32.4211E-03    -32.4437E-03
            1485               1     75.3454E-03     74.4666E-03    -35.7916E-03    -35.9213E-03
            1486               1     68.4670E-03     67.6798E-03    -37.5457E-03    -37.3883E-03
            1487               1     67.8041E-03     67.9675E-03    -39.0535E-03    -39.1153E-03
            1488               1     72.4440E-03     72.7080E-03    -39.6448E-03    -39.4329E-03
            1489               1     82.0961E-03     83.2332E-03    -39.8481E-03    -39.9236E-03
            1490               1     95.2204E-03     96.0872E-03    -39.4835E-03    -39.1933E-03
            1491               1     110.312E-03     111.800E-03    -38.5311E-03    -38.6023E-03
            1492               1     127.029E-03     128.032E-03    -37.0883E-03    -36.6440E-03
            1493               1     144.164E-03     145.613E-03    -34.7936E-03    -34.7559E-03
            1494               1     162.278E-03     163.191E-03    -31.7794E-03    -31.1354E-03
            1495               1     179.228E-03     180.816E-03    -27.4808E-03    -27.2809E-03
            1496               1     198.347E-03     198.939E-03    -22.2013E-03    -21.4059E-03
            1497               1     212.276E-03     215.396E-03    -14.6998E-03    -15.0758E-03
            1498               1     153.415E-03     150.623E-03    -11.1990E-03    -10.2896E-03
            1499               1     153.116E-03     146.192E-03    -19.2704E-03    -19.3478E-03
            1500               1     140.351E-03     136.848E-03    -17.4525E-03    -18.9617E-03
            1501               1     120.216E-03     118.259E-03    -24.5843E-03    -25.3147E-03
            1502               1     103.582E-03     101.538E-03    -26.8352E-03    -27.1450E-03
            1503               1     87.3588E-03     85.8089E-03    -30.6761E-03    -30.9348E-03
            1504               1     72.4998E-03     70.9565E-03    -32.0148E-03    -31.8808E-03
            1505               1     63.0871E-03     62.4763E-03    -33.5429E-03    -33.6517E-03
            1506               1     59.5983E-03     59.2263E-03    -34.2079E-03    -33.9624E-03
            1507               1     63.9654E-03     64.9454E-03    -34.6047E-03    -34.7066E-03
            1508               1     74.8773E-03     75.7886E-03    -34.7451E-03    -34.4277E-03
            1509               1     89.4407E-03     91.2809E-03    -34.3876E-03    -34.5208E-03
            1510               1     106.860E-03     108.339E-03    -33.9795E-03    -33.5291E-03
            1511               1     125.320E-03     127.430E-03    -32.8990E-03    -33.0128E-03
            1512               1     144.978E-03     146.841E-03    -31.6391E-03    -31.0225E-03
            1513               1     164.860E-03     167.200E-03    -29.6926E-03    -29.6227E-03
            1514               1     185.676E-03     187.981E-03    -26.6090E-03    -26.1368E-03
            1515               1     204.628E-03     208.175E-03    -23.3973E-03    -23.0113E-03
            1516               1     226.923E-03     229.168E-03    -16.9321E-03    -17.9048E-03
            1517               1     164.018E-03     157.611E-03    -9.70966E-03    -10.3762E-03
            1518               1     157.102E-03     152.406E-03    -15.3693E-03    -15.3749E-03
            1519               1     146.124E-03     141.054E-03    -24.4868E-03    -24.1664E-03
            1520               1     126.968E-03     123.456E-03    -23.7044E-03    -24.2307E-03
            1521               1     108.189E-03     105.416E-03    -28.6975E-03    -28.8167E-03
            1522               1     87.2979E-03     84.9526E-03    -28.5757E-03    -28.4767E-03
            1523               1     71.1735E-03     69.5676E-03    -29.8467E-03    -29.9713E-03
            1524               1     57.8778E-03     56.5089E-03    -29.9569E-03    -29.7171E-03
            1525               1     52.6950E-03     52.9212E-03    -30.1374E-03    -30.2558E-03
            1526               1     56.9984E-03     57.6031E-03    -30.2969E-03    -30.0040E-03
            1527               1     68.4294E-03     70.3820E-03    -30.1160E-03    -30.2766E-03
            1528               1     85.0411E-03     86.7974E-03    -30.2430E-03    -29.8609E-03
            1529               1     103.513E-03     106.071E-03    -29.8437E-03    -30.0729E-03
            1530               1     123.778E-03     126.118E-03    -29.8191E-03    -29.3071E-03
            1531               1     144.812E-03     147.686E-03    -29.2581E-03    -29.4958E-03
            1532               1     166.325E-03     169.431E-03    -28.5575E-03    -28.0743E-03
            1533               1     188.877E-03     192.099E-03    -28.0131E-03    -27.9191E-03
            1534               1     211.203E-03     215.080E-03    -24.6507E-03    -25.3562E-03
            1535               1     232.864E-03     236.563E-03    -24.2736E-03    -22.9797E-03
            1536               1     174.696E-03     167.796E-03    -6.72225E-03    -5.43231E-03
            1537               1     165.189E-03     159.916E-03    -19.0612E-03    -18.5096E-03
            1538               1     148.465E-03     143.769E-03    -21.7032E-03    -21.7087E-03
            1539               1     132.584E-03     127.837E-03    -29.5435E-03    -28.9032E-03
            1540               1     106.146E-03     102.930E-03    -27.3527E-03    -27.0778E-03
            1541               1     87.1992E-03     84.5183E-03    -28.0766E-03    -28.0576E-03
            1542               1     66.9904E-03     64.6215E-03    -27.0366E-03    -26.7699E-03
            1543               1     52.7619E-03     51.6498E-03    -26.5729E-03    -26.6802E-03
            1544               1     46.0013E-03     45.6255E-03    -26.2718E-03    -26.0144E-03
            1545               1     49.8316E-03     51.4593E-03    -25.8407E-03    -25.9977E-03
            1546               1     63.1435E-03     64.9875E-03    -26.0039E-03    -25.7031E-03
            1547               1     80.2801E-03     83.0967E-03    -25.7993E-03    -26.0494E-03
            1548               1     100.296E-03     102.923E-03    -26.3449E-03    -25.9626E-03
            1549               1     121.203E-03     124.441E-03    -26.4285E-03    -26.8297E-03
            1550               1     142.893E-03     146.176E-03    -27.2526E-03    -26.8223E-03
            1551               1     165.924E-03     169.406E-03    -27.8655E-03    -28.3285E-03
            1552               1     188.024E-03     192.433E-03    -28.2334E-03    -28.1317E-03
            1553               1     214.148E-03     216.937E-03    -30.0515E-03    -29.6993E-03
            1554               1     235.761E-03     240.716E-03    -26.4176E-03    -28.3057E-03
            1555               1     183.807E-03     181.110E-03    -6.57176E-03    -6.51496E-03
            1556               1     174.200E-03     167.317E-03    -16.1619E-03    -15.7470E-03
            1557               1     158.489E-03     152.633E-03    -30.8979E-03    -29.4599E-03
            1558               1     124.493E-03     120.823E-03    -28.2814E-03    -27.3113E-03
            1559               1     105.333E-03     101.695E-03    -27.6860E-03    -27.3328E-03
            1560               1     80.9888E-03     77.8603E-03    -25.3855E-03    -24.9655E-03
            1561               1     62.1423E-03     59.7516E-03    -23.7900E-03    -23.8276E-03
            1562               1     45.8661E-03     43.9591E-03    -22.7035E-03    -22.4636E-03
            1563               1     37.8946E-03     38.2532E-03    -21.6408E-03    -21.7725E-03
            1564               1     43.2245E-03     44.7691E-03    -21.4398E-03    -21.2140E-03
            1565               1     57.0435E-03     59.9629E-03    -21.0332E-03    -21.2380E-03
            1566               1     75.8993E-03     78.8071E-03    -21.5861E-03    -21.3167E-03
            1567               1     96.0535E-03     99.5227E-03    -21.8185E-03    -22.1859E-03
            1568               1     117.448E-03     120.827E-03    -23.1710E-03    -22.8602E-03
            1569               1     139.596E-03     143.306E-03    -24.1530E-03    -24.7955E-03
            1570               1     161.548E-03     165.576E-03    -26.3790E-03    -26.0696E-03
            1571               1     186.232E-03     189.751E-03    -28.5109E-03    -29.2870E-03
            1572               1     207.713E-03     213.033E-03    -31.0757E-03    -30.8069E-03
            1573               1     238.722E-03     240.000E-03    -34.9226E-03    -34.3276E-03
            1574               1     211.669E-03     199.095E-03    -4.25486E-03    -3.03562E-03
            1575               1     193.395E-03     188.291E-03    -34.0080E-03    -31.3404E-03
            1576               1     143.269E-03     139.991E-03    -31.5357E-03    -29.5556E-03
            1577               1     122.046E-03     118.391E-03    -27.2043E-03    -26.6608E-03
            1578               1     95.3942E-03     91.9774E-03    -24.5842E-03    -23.9004E-03
            1579               1     74.7752E-03     71.5173E-03    -21.2240E-03    -21.1608E-03
            1580               1     54.1510E-03     51.0372E-03    -19.3900E-03    -19.1491E-03
            1581               1     37.0915E-03     35.2157E-03    -17.4006E-03    -17.4857E-03
            1582               1     28.9939E-03     29.0939E-03    -16.6060E-03    -16.4535E-03
            1583               1     35.0893E-03     37.8205E-03    -15.7130E-03    -15.8453E-03
            1584               1     51.5515E-03     54.7979E-03    -15.8884E-03    -15.7217E-03
            1585               1     70.6975E-03     74.4097E-03    -15.9443E-03    -16.1674E-03
            1586               1     91.4386E-03     95.1405E-03    -17.1415E-03    -16.9490E-03
            1587               1     112.634E-03     116.456E-03    -18.1417E-03    -18.5848E-03
            1588               1     134.064E-03     137.932E-03    -20.6034E-03    -20.3987E-03
            1589               1     156.503E-03     160.209E-03    -22.6775E-03    -23.5086E-03
            1590               1     177.981E-03     182.199E-03    -26.9604E-03    -26.5464E-03
            1591               1     203.568E-03     206.706E-03    -30.2136E-03    -31.4090E-03
            1592               1     225.014E-03     229.963E-03    -37.0163E-03    -35.1778E-03
            1593               1     243.773E-03     250.691E-03    -34.2755E-03    -30.3144E-03
            1594               1     167.398E-03     167.518E-03    -39.0545E-03    -36.7098E-03
            1595               1     136.148E-03     134.054E-03    -25.1609E-03    -24.9647E-03
            1596               1     109.644E-03     106.667E-03    -23.6229E-03    -22.9665E-03
            1597               1     87.1070E-03     83.4302E-03    -17.8960E-03    -17.8749E-03
            1598               1     65.7731E-03     62.0152E-03    -15.8071E-03    -15.6224E-03
            1599               1     45.3882E-03     41.6989E-03    -12.7708E-03    -12.8018E-03
            1600               1     27.2745E-03     24.4001E-03    -11.3612E-03    -11.2932E-03
            1601               1     17.1709E-03     18.2255E-03    -9.83942E-03    -9.88637E-03
            1602               1     27.7578E-03     31.3700E-03    -9.42655E-03    -9.37130E-03
            1603               1     45.9393E-03     50.0471E-03    -9.09802E-03    -9.16186E-03
            1604               1     65.9913E-03     70.2804E-03    -9.76571E-03    -9.70246E-03
            1605               1     86.5117E-03     90.6155E-03    -10.5717E-03    -10.6960E-03
            1606               1     107.098E-03     111.395E-03    -12.4998E-03    -12.4302E-03
            1607               1     128.136E-03     131.842E-03    -14.4972E-03    -14.7736E-03
            1608               1     148.798E-03     152.790E-03    -18.1549E-03    -18.0267E-03
            1609               1     170.677E-03     173.497E-03    -21.3081E-03    -21.9193E-03
            1610               1     191.924E-03     195.449E-03    -27.9617E-03    -27.2927E-03
            1611               1     216.913E-03     219.042E-03    -31.5635E-03    -32.7170E-03
            1612               1     564.839E-06     658.294E-06     323.263E-06     326.031E-06
            1613               1     602.880E-06     804.306E-06     149.594E-06     142.796E-06
            1614               1     730.520E-06     720.188E-06     400.595E-06     393.931E-06
            1615               1     264.415E-06     300.655E-06     65.7290E-06     114.797E-06
            1616               1     638.335E-06     565.419E-06     303.921E-06     310.996E-06
            1617               1     227.946E-06     356.386E-06     120.660E-06     120.954E-06
            1618               1     42.2757E-03     39.7962E-03    -23.5425E-03    -22.5645E-03
            1619               1     30.3657E-03     31.7323E-03    -17.2353E-03    -17.2302E-03
            1620               1     43.1627E-03     43.1202E-03    -24.0584E-03    -24.0350E-03
            1621               1     27.1620E-03     28.7966E-03    -15.6379E-03    -16.3687E-03
            1622               1     41.8199E-03     43.0535E-03    -22.4129E-03    -22.9791E-03
            1623               1     29.1027E-03     28.8177E-03    -14.6768E-03    -15.0005E-03
            1624               1     44.5054E-03     45.1895E-03    -22.1385E-03    -22.7260E-03
            1625               1     33.5734E-03     34.7939E-03    -14.9110E-03    -15.0414E-03
            1626               1     48.2573E-03     49.2560E-03    -22.9829E-03    -23.1963E-03
            1627               1     41.5181E-03     40.4062E-03    -15.3112E-03    -15.4155E-03
            1628               1     53.7042E-03     54.5229E-03    -23.9984E-03    -24.8455E-03
            1629               1     48.0648E-03     50.7414E-03    -16.6644E-03    -16.6251E-03
            1630               1     60.9315E-03     60.9272E-03    -27.7984E-03    -27.4861E-03
            1631               1     61.1980E-03     58.2882E-03    -19.2891E-03    -19.8946E-03
            1632               1     58.4439E-03     59.6146E-03    -27.9717E-03    -26.5020E-03
            1633               1     68.3482E-03     73.6376E-03    -22.7636E-03    -21.8390E-03
            1634               1     62.5108E-03     59.2257E-03    -17.3355E-03    -16.9759E-03
            1635               1     48.9939E-03     47.1746E-03    -10.3400E-03    -11.2755E-03
            1636               1     67.7633E-03     68.0134E-03    -18.5132E-03    -18.7071E-03
            1637               1     58.2947E-03     58.7383E-03    -10.7115E-03    -11.5813E-03
            1638               1     73.0403E-03     74.1286E-03    -18.6978E-03    -19.0775E-03
            1639               1     68.8233E-03     69.4608E-03    -11.1526E-03    -11.8923E-03
            1640               1     79.6613E-03     80.7098E-03    -18.9754E-03    -19.7039E-03
            1641               1     77.4484E-03     78.1957E-03    -12.3945E-03    -12.6948E-03
            1642               1     85.1748E-03     86.4716E-03    -20.2605E-03    -20.2781E-03
            1643               1     86.2047E-03     86.0836E-03    -13.0469E-03    -13.3324E-03
            1644               1     91.5305E-03     92.2367E-03    -20.8236E-03    -21.5085E-03
            1645               1     92.9460E-03     94.9760E-03    -14.3923E-03    -14.2691E-03
            1646               1     97.1699E-03     98.8305E-03    -23.4481E-03    -22.9829E-03
            1647               1     102.971E-03     101.234E-03    -15.8143E-03    -15.7688E-03
            1648               1     103.933E-03     104.433E-03    -25.4796E-03    -26.3661E-03
            1649               1     108.747E-03     113.695E-03    -18.8587E-03    -18.3433E-03
            1650               1     110.225E-03     110.457E-03    -31.5153E-03    -30.7870E-03
            1651               1     123.234E-03     117.221E-03    -23.4622E-03    -23.9058E-03
            1652               1     102.473E-03     105.543E-03    -32.4548E-03    -30.3999E-03
            1653               1     127.134E-03     134.760E-03    -28.8863E-03    -26.8723E-03
            1654               1     108.488E-03     106.350E-03    -10.9129E-03    -11.3515E-03
            1655               1     107.255E-03     107.926E-03    -3.07254E-03    -5.09336E-03
            1656               1     119.351E-03     120.126E-03    -12.9293E-03    -13.2705E-03
            1657               1     120.387E-03     117.455E-03    -5.73206E-03    -6.75709E-03
            1658               1     127.799E-03     128.547E-03    -15.2141E-03    -15.7583E-03
            1659               1     129.500E-03     132.793E-03    -8.04951E-03    -9.04507E-03
            1660               1     134.270E-03     136.794E-03    -16.5998E-03    -17.2131E-03
            1661               1     140.480E-03     139.530E-03    -10.6327E-03    -11.3115E-03
            1662               1     141.781E-03     142.502E-03    -18.2685E-03    -18.8336E-03
            1663               1     146.426E-03     149.029E-03    -11.6830E-03    -11.8893E-03
            1664               1     146.324E-03     148.906E-03    -19.8724E-03    -19.7838E-03
            1665               1     156.410E-03     155.614E-03    -13.3578E-03    -13.5630E-03
            1666               1     153.455E-03     153.972E-03    -21.3654E-03    -21.8566E-03
            1667               1     160.877E-03     164.538E-03    -15.2742E-03    -14.9987E-03
            1668               1     157.647E-03     160.665E-03    -24.9096E-03    -24.0516E-03
            1669               1     171.719E-03     169.042E-03    -17.4367E-03    -17.1737E-03
            1670               1     164.311E-03     164.668E-03    -28.0107E-03    -28.8509E-03
            1671               1     175.093E-03     182.411E-03    -22.0132E-03    -21.0423E-03
            1672               1     168.468E-03     169.109E-03    -36.0528E-03    -35.0285E-03
            1673               1     190.190E-03     181.315E-03    -28.5024E-03    -28.7437E-03
            1674               1     155.248E-03     159.149E-03    -37.8447E-03    -35.1460E-03
            1675               1     190.487E-03     200.225E-03    -35.8821E-03    -32.7472E-03
            1676               1     161.089E-03     160.125E-03    -4.96909E-03    -6.16640E-03
            1677               1     171.472E-03     174.986E-03     3.79907E-03     608.526E-06
            1678               1     177.673E-03     178.908E-03    -7.76953E-03    -8.44169E-03
            1679               1     187.435E-03     181.392E-03    -1.27730E-03    -2.38816E-03
            1680               1     187.780E-03     188.461E-03    -12.5047E-03    -12.9146E-03
            1681               1     194.724E-03     200.471E-03    -5.57338E-03    -6.94712E-03
            1682               1     194.063E-03     197.872E-03    -14.8735E-03    -15.7808E-03
            1683               1     207.109E-03     205.229E-03    -9.71804E-03    -10.5560E-03
            1684               1     202.302E-03     203.080E-03    -17.6907E-03    -18.2082E-03
            1685               1     211.535E-03     215.537E-03    -11.4365E-03    -11.7204E-03
            1686               1     205.911E-03     209.644E-03    -19.8992E-03    -19.7886E-03
            1687               1     222.310E-03     221.092E-03    -13.8454E-03    -14.0186E-03
            1688               1     213.340E-03     213.933E-03    -22.0136E-03    -22.4338E-03
            1689               1     225.112E-03     230.082E-03    -16.4659E-03    -16.0707E-03
            1690               1     216.266E-03     220.470E-03    -26.5443E-03    -25.3617E-03
            1691               1     236.424E-03     232.911E-03    -19.2303E-03    -18.7412E-03
            1692               1     222.471E-03     222.831E-03    -30.4957E-03    -31.3467E-03
            1693               1     237.649E-03     247.076E-03    -25.1984E-03    -23.7937E-03
            1694               1     224.755E-03     225.707E-03    -40.4669E-03    -39.1787E-03
            1695               1     253.179E-03     241.677E-03    -33.3767E-03    -33.4093E-03
            1696               1     206.314E-03     210.735E-03    -43.0270E-03    -39.7239E-03
            1697               1     250.183E-03     261.814E-03    -42.6055E-03    -38.4223E-03
            1698               1     212.679E-03     213.030E-03    -2.18791E-03    -3.77353E-03
            1699               1     232.360E-03     238.530E-03     7.73596E-03     3.33399E-03
            1700               1     234.860E-03     236.278E-03    -5.64362E-03    -7.02693E-03
            1701               1     250.266E-03     242.258E-03    -151.492E-06    -1.16271E-03
            1702               1     244.470E-03     246.582E-03    -14.5714E-03    -13.5896E-03
            1703               1     257.377E-03     263.702E-03    -6.97148E-03    -8.76097E-03
            1704               1     251.844E-03     255.569E-03    -17.6277E-03    -19.7292E-03
            1705               1     267.317E-03     268.399E-03    -14.3677E-03    -14.4785E-03
            1706               1     257.428E-03     261.322E-03    -25.9726E-03    -24.2845E-03
            1707               1     275.701E-03     274.315E-03    -18.1466E-03    -18.0071E-03
            1708               1     261.945E-03     263.812E-03    -29.9548E-03    -31.8606E-03
            1709               1     278.914E-03     288.275E-03    -26.3011E-03    -24.5109E-03
            1710               1     264.597E-03     265.390E-03    -42.6399E-03    -41.0385E-03
            1711               1     293.542E-03     280.798E-03    -35.8299E-03    -35.7029E-03
            1712               1     242.133E-03     247.035E-03    -45.7553E-03    -42.2855E-03
            1713               1     289.212E-03     301.799E-03    -46.7775E-03    -41.8412E-03
            1714               1     1.17670E-03     1.15851E-03    -678.945E-06    -667.276E-06
            1715               1     1.21351E-03     1.17511E-03    -700.218E-06    -678.258E-06
            1716               1     1.17386E-03     1.17080E-03    -677.523E-06    -675.461E-06
            1717               1     1.07697E-03     1.07328E-03    -618.655E-06    -608.743E-06
            1718               1     1.11986E-03     1.07802E-03    -643.207E-06    -620.766E-06
            1719               1     1.07700E-03     1.07154E-03    -619.607E-06    -618.628E-06
            1720               1     894.951E-06     926.940E-06    -509.298E-06    -500.279E-06
            1721               1     927.186E-06     886.941E-06    -524.627E-06    -506.457E-06
            1722               1     887.069E-06     879.090E-06    -509.092E-06    -504.089E-06
            1723               1     660.599E-06     732.292E-06    -364.769E-06    -350.594E-06
            1724               1     677.449E-06     628.815E-06    -364.741E-06    -351.946E-06
            1725               1     639.135E-06     626.996E-06    -356.051E-06    -361.330E-06
            1726               1     303.617E-06     534.787E-06    -125.538E-06    -122.648E-06
            1727               1     488.253E-06     404.972E-06    -228.966E-06    -207.243E-06
            1728               1     319.111E-06     319.387E-06    -143.494E-06    -139.079E-06
            1729               1     715.053E-06     938.342E-06     218.975E-06     215.288E-06
            1730               1     610.961E-06     532.767E-06     316.148E-06     284.996E-06
            1731               1     318.676E-06     465.603E-06     150.487E-06     175.550E-06
            2140               1     602.880E-06     804.306E-06     149.594E-06     142.796E-06
            2141               1     564.839E-06     658.294E-06     323.263E-06     326.031E-06
            2142               1     264.415E-06     300.655E-06     65.7290E-06     114.797E-06
            2143               1     730.520E-06     720.188E-06     400.595E-06     393.931E-06
            2144               1     227.946E-06     356.386E-06     120.660E-06     120.954E-06
            2145               1     638.335E-06     565.419E-06     303.921E-06     310.996E-06
            2146               1     149.595E-03     199.346E-03    -7.04782E-03    -9.45987E-03
            2147               1     202.359E-03     143.285E-03    -4.83462E-03    -4.45474E-03
            2148               1     137.447E-03     175.389E-03    -5.50922E-03    -5.68500E-03
            2149               1     144.344E-03     121.917E-03    -8.37042E-03    -6.50099E-03
            2150               1     108.706E-03     106.879E-03    -4.47042E-03    -558.601E-06
            2151               1     105.471E-03     129.080E-03    -12.2030E-03    -11.6114E-03
            2152               1     111.802E-03     87.3005E-03     5.46979E-03     6.21083E-03
            2153               1     108.095E-03     149.827E-03     13.7714E-03     11.8338E-03
            2154               1     147.521E-03     101.887E-03     15.5226E-03     16.5754E-03
            2155               1     91.6953E-03     114.967E-03     14.1014E-03     15.0270E-03
            2156               1     86.8528E-03     78.5324E-03     14.2780E-03     13.9676E-03
            2157               1     67.9629E-03     60.3226E-03     15.6122E-03     18.4077E-03
            2158               1     50.8517E-03     75.9789E-03     8.85576E-03     8.87852E-03
            2159               1     72.0350E-03     55.5925E-03     25.6572E-03     26.4575E-03
            2160               1     87.3250E-03     112.232E-03     35.6985E-03     33.0473E-03
            2161               1     107.716E-03     84.0251E-03     38.7444E-03     38.3115E-03
            2162               1     74.6684E-03     82.2313E-03     36.6280E-03     36.6866E-03
            2163               1     60.0585E-03     64.5711E-03     32.3116E-03     33.7930E-03
            2164               1     64.9209E-03     68.1977E-03     35.7689E-03     39.1063E-03
            2165               1     52.0094E-03     55.2922E-03     29.8802E-03     29.8174E-03
            2166               1     79.5755E-03     83.1637E-03     45.7916E-03     46.3260E-03
            2167               1     101.373E-03     96.2761E-03     57.4711E-03     51.0159E-03
            2168               1     108.082E-03     98.3222E-03     60.6679E-03     56.2965E-03
            2169               1     97.1120E-03     95.5312E-03     55.9246E-03     55.1095E-03
            2170               1     99.2721E-03     99.9924E-03     53.9701E-03     57.6138E-03
            2171               1     96.0070E-03     121.382E-03     54.0301E-03     62.4781E-03
            2172               1     101.919E-03     92.8412E-03     51.2733E-03     50.9233E-03
            2173               1     120.746E-03     131.675E-03     64.9052E-03     65.0714E-03
            2174               1     118.295E-03     113.857E-03     67.4923E-03     64.8957E-03
            2175               1     123.260E-03     123.596E-03     69.6835E-03     70.1421E-03
            2176               1     134.989E-03     145.820E-03     75.9567E-03     78.9781E-03
            2177               1     159.845E-03     147.806E-03     79.5822E-03     79.5405E-03
            2178               1     163.641E-03     181.011E-03     88.2745E-03     87.7574E-03
            2179               1     148.000E-03     138.729E-03     67.4800E-03     67.4461E-03
            2180               1     157.679E-03     169.605E-03     78.5370E-03     78.3963E-03
            2181               1     130.125E-03     138.267E-03     72.6980E-03     77.9683E-03
            2182               1     164.451E-03     167.605E-03     89.4337E-03     91.9513E-03
            2183               1     174.557E-03     184.703E-03     92.7693E-03     95.9712E-03
            2184               1     221.064E-03     203.264E-03     112.084E-03     107.343E-03
            2185               1     221.803E-03     226.123E-03     114.488E-03     108.320E-03
            2186               1     192.148E-03     184.016E-03     91.9207E-03     90.8355E-03
            2187               1     202.412E-03     214.329E-03     94.6928E-03     95.5314E-03
            2188               1     212.187E-03     216.768E-03     95.3259E-03     94.8184E-03
            2189               1     214.041E-03     221.806E-03     101.041E-03     101.782E-03
            2190               1     191.893E-03     193.329E-03     87.0304E-03     89.2155E-03
            2191               1     217.921E-03     216.353E-03     98.3866E-03     98.6139E-03
            2192               1     213.560E-03     217.188E-03     104.960E-03     104.885E-03
            2193               1     216.907E-03     218.881E-03     111.670E-03     110.626E-03
            2194               1     202.425E-03     202.761E-03     99.2221E-03     99.9532E-03
            2195               1     210.396E-03     214.114E-03     105.769E-03     107.239E-03
            2196               1     174.221E-03     176.997E-03     85.7089E-03     85.1632E-03
            2197               1     194.104E-03     202.549E-03     96.9729E-03     100.884E-03
            2198               1     155.270E-03     161.832E-03     78.9814E-03     81.2193E-03
            2199               1     184.043E-03     186.594E-03     92.7246E-03     92.5376E-03
            2200               1     135.199E-03     136.281E-03     70.7742E-03     72.5944E-03
            2201               1     175.128E-03     170.033E-03     85.9146E-03     84.5426E-03
            2202               1     601.998E-06     684.620E-06     343.289E-06     350.027E-06
            2203               1     591.489E-06     676.012E-06     338.307E-06     339.000E-06
            2204               1     579.834E-06     668.564E-06     332.376E-06     339.487E-06
            2205               1     582.955E-06     664.483E-06     335.621E-06     336.630E-06
            2206               1     576.815E-06     661.910E-06     332.552E-06     338.676E-06
            2207               1     579.537E-06     657.797E-06     334.509E-06     336.711E-06
            2208               1     576.872E-06     655.704E-06     332.974E-06     338.000E-06
            2209               1     579.110E-06     652.284E-06     333.932E-06     337.052E-06
            2210               1     578.998E-06     649.892E-06     333.318E-06     337.607E-06
            2211               1     581.101E-06     647.187E-06     333.612E-06     337.318E-06
            2212               1     582.889E-06     644.320E-06     333.549E-06     337.368E-06
            2213               1     585.255E-06     642.339E-06     333.415E-06     337.504E-06
            2214               1     588.496E-06     638.956E-06     333.702E-06     337.217E-06
            2215               1     591.527E-06     637.696E-06     333.325E-06     337.620E-06
            2216               1     595.646E-06     633.932E-06     333.726E-06     337.182E-06
            2217               1     599.711E-06     632.244E-06     333.199E-06     337.212E-06
            2218               1     605.463E-06     631.429E-06     334.088E-06     338.718E-06
            2219               1     620.558E-06     645.570E-06     342.920E-06     344.653E-06
            2220               1     553.902E-06     567.947E-06     291.005E-06     296.911E-06
            2221               1     623.665E-06     638.666E-06     339.683E-06     347.677E-06
            2222               1     607.306E-06     630.452E-06     331.129E-06     344.613E-06
            2223               1     617.083E-06     618.583E-06     339.664E-06     339.925E-06
            2224               1     602.136E-06     627.520E-06     332.534E-06     347.233E-06
            2225               1     609.285E-06     613.513E-06     338.849E-06     340.797E-06
            2226               1     597.933E-06     618.985E-06     333.807E-06     345.838E-06
            2227               1     601.296E-06     609.986E-06     337.493E-06     342.156E-06
            2228               1     594.520E-06     611.607E-06     334.999E-06     344.650E-06
            2229               1     594.706E-06     606.644E-06     336.517E-06     343.132E-06
            2230               1     591.295E-06     605.712E-06     335.782E-06     343.867E-06
            2231               1     589.518E-06     603.561E-06     335.885E-06     343.763E-06
            2232               1     588.491E-06     601.088E-06     336.299E-06     343.350E-06
            2233               1     585.551E-06     600.948E-06     335.471E-06     344.173E-06
            2234               1     586.130E-06     597.744E-06     336.564E-06     343.089E-06
            2235               1     583.317E-06     598.591E-06     335.560E-06     344.230E-06
            2236               1     582.923E-06     596.394E-06     335.830E-06     343.482E-06
            2237               1     580.762E-06     590.358E-06     334.939E-06     340.402E-06
            2238               1     591.420E-06     616.820E-06     341.336E-06     355.960E-06
            2239               1     698.276E-06     684.451E-06     403.148E-06     395.121E-06
            2240               1     686.862E-06     618.908E-06     345.514E-06     350.544E-06
            2241               1     675.726E-06     596.633E-06     340.636E-06     341.398E-06
            2242               1     666.096E-06     603.867E-06     339.137E-06     346.178E-06
            2243               1     671.596E-06     596.837E-06     342.385E-06     343.523E-06
            2244               1     663.024E-06     601.103E-06     340.450E-06     346.502E-06
            2245               1     664.843E-06     597.017E-06     342.348E-06     344.583E-06
            2246               1     658.897E-06     599.541E-06     341.084E-06     346.093E-06
            2247               1     658.431E-06     598.357E-06     342.019E-06     345.149E-06
            2248               1     654.391E-06     600.229E-06     341.472E-06     345.754E-06
            2249               1     652.628E-06     601.167E-06     341.756E-06     345.466E-06
            2250               1     649.672E-06     603.011E-06     341.709E-06     345.526E-06
            2251               1     647.304E-06     605.647E-06     341.570E-06     345.661E-06
            2252               1     644.903E-06     607.719E-06     341.863E-06     345.371E-06
            2253               1     642.410E-06     611.852E-06     341.471E-06     345.771E-06
            2254               1     639.996E-06     614.397E-06     341.843E-06     345.343E-06
            2255               1     637.816E-06     618.764E-06     341.316E-06     345.301E-06
            2256               1     636.543E-06     624.499E-06     342.382E-06     346.530E-06
            2257               1     642.571E-06     645.465E-06     350.535E-06     352.831E-06
            2258               1     567.124E-06     578.968E-06     296.425E-06     306.834E-06
            2259               1     214.530E-03     222.515E-03     98.1688E-03     99.1039E-03
            2260               1     216.241E-03     225.618E-03     98.9683E-03     99.1907E-03
            2261               1     217.858E-03     228.473E-03     98.3930E-03     99.3870E-03
            2262               1     219.784E-03     231.400E-03     98.7399E-03     99.0931E-03
            2263               1     221.510E-03     234.529E-03     98.4949E-03     99.3126E-03
            2264               1     223.464E-03     237.561E-03     98.6495E-03     99.1611E-03
            2265               1     225.291E-03     240.760E-03     98.5559E-03     99.2530E-03
            2266               1     227.243E-03     243.918E-03     98.6068E-03     99.2022E-03
            2267               1     229.156E-03     247.169E-03     98.5839E-03     99.2248E-03
            2268               1     231.109E-03     250.443E-03     98.5867E-03     99.2220E-03
            2269               1     233.106E-03     253.729E-03     98.5998E-03     99.2063E-03
            2270               1     235.039E-03     257.140E-03     98.5661E-03     99.2394E-03
            2271               1     237.135E-03     260.379E-03     98.6055E-03     99.1642E-03
            2272               1     239.010E-03     264.025E-03     98.5210E-03     99.2526E-03
            2273               1     240.866E-03     266.736E-03     98.3819E-03     98.8830E-03
            2274               1     243.250E-03     271.294E-03     98.3746E-03     99.1282E-03
            2275               1     238.755E-03     267.735E-03     94.8049E-03     95.3994E-03
            2276               1     253.226E-03     284.157E-03     97.9006E-03     98.2865E-03
            2277               1     161.404E-03     198.743E-03     44.6396E-03     46.1658E-03
            2278               1     216.864E-03     213.418E-03     96.5656E-03     97.0519E-03
            2279               1     220.428E-03     217.673E-03     97.0685E-03     98.0166E-03
            2280               1     223.970E-03     218.333E-03     97.2774E-03     97.5905E-03
            2281               1     226.382E-03     220.977E-03     97.0433E-03     97.9227E-03
            2282               1     229.895E-03     222.358E-03     97.2488E-03     97.7043E-03
            2283               1     232.708E-03     224.564E-03     97.1102E-03     97.8495E-03
            2284               1     236.027E-03     226.315E-03     97.1962E-03     97.7627E-03
            2285               1     239.137E-03     228.345E-03     97.1496E-03     97.8098E-03
            2286               1     242.409E-03     230.275E-03     97.1692E-03     97.7903E-03
            2287               1     245.683E-03     232.263E-03     97.1704E-03     97.7898E-03
            2288               1     248.988E-03     234.283E-03     97.1506E-03     97.8098E-03
            2289               1     252.369E-03     236.280E-03     97.1982E-03     97.7718E-03
            2290               1     255.742E-03     238.368E-03     97.1243E-03     97.8463E-03
            2291               1     259.223E-03     240.425E-03     97.3090E-03     97.7965E-03
            2292               1     262.796E-03     242.648E-03     97.1178E-03     97.9487E-03
            2293               1     266.613E-03     245.234E-03     98.3101E-03     98.6811E-03
            2294               1     271.866E-03     248.718E-03     97.4196E-03     98.3308E-03
            2295               1     280.535E-03     258.547E-03     111.533E-03     111.953E-03
            2296               1     308.546E-03     281.125E-03     97.8247E-03     98.3911E-03
            2297               1     216.042E-03     220.622E-03     109.275E-03     110.411E-03
            2298               1     220.068E-03     225.166E-03     110.500E-03     110.844E-03
            2299               1     223.429E-03     229.283E-03     109.895E-03     110.491E-03
            2300               1     226.942E-03     233.478E-03     109.570E-03     109.790E-03
            2301               1     230.793E-03     238.063E-03     109.047E-03     109.463E-03
            2302               1     234.607E-03     242.668E-03     108.604E-03     108.863E-03
            2303               1     238.887E-03     247.734E-03     108.228E-03     108.605E-03
            2304               1     242.795E-03     252.466E-03     107.651E-03     107.944E-03
            2305               1     247.342E-03     257.846E-03     107.297E-03     107.653E-03
            2306               1     250.763E-03     262.129E-03     106.217E-03     106.529E-03
            2307               1     255.369E-03     267.608E-03     105.709E-03     106.050E-03
            2308               1     257.218E-03     270.399E-03     103.374E-03     103.700E-03
            2309               1     261.598E-03     275.711E-03     102.401E-03     102.735E-03
            2310               1     259.438E-03     274.742E-03     96.9615E-03     97.3339E-03
            2311               1     262.271E-03     278.611E-03     94.4272E-03     94.7577E-03
            2312               1     249.712E-03     267.873E-03     80.8789E-03     81.3572E-03
            2313               1     239.739E-03     257.981E-03     71.7218E-03     71.4663E-03
            2314               1     203.939E-03     226.823E-03     45.0738E-03     46.9541E-03
            2315               1     156.397E-03     185.248E-03     20.9233E-03     23.6829E-03
            2316               1     211.733E-03     216.720E-03     107.121E-03     108.112E-03
            2317               1     216.310E-03     221.756E-03     106.969E-03     108.602E-03
            2318               1     219.585E-03     224.095E-03     106.584E-03     107.143E-03
            2319               1     223.246E-03     228.726E-03     105.848E-03     107.021E-03
            2320               1     227.538E-03     232.754E-03     105.691E-03     106.255E-03
            2321               1     231.784E-03     237.913E-03     105.209E-03     106.226E-03
            2322               1     236.418E-03     242.573E-03     105.056E-03     105.721E-03
            2323               1     241.271E-03     248.144E-03     104.736E-03     105.672E-03
            2324               1     245.841E-03     252.928E-03     104.364E-03     105.102E-03
            2325               1     251.221E-03     258.899E-03     104.063E-03     104.948E-03
            2326               1     255.237E-03     263.248E-03     103.198E-03     103.974E-03
            2327               1     261.323E-03     269.869E-03     102.793E-03     103.654E-03
            2328               1     263.910E-03     272.895E-03     100.893E-03     101.698E-03
            2329               1     271.618E-03     281.060E-03     100.335E-03     101.204E-03
            2330               1     270.909E-03     281.050E-03     95.9029E-03     96.8289E-03
            2331               1     281.411E-03     291.464E-03     95.0619E-03     95.8165E-03
            2332               1     268.774E-03     281.583E-03     79.6861E-03     80.9649E-03
            2333               1     259.860E-03     267.494E-03     69.4981E-03     68.7888E-03
            2334               1     215.810E-03     213.776E-03     46.2324E-03     46.1847E-03
            2335               1     208.164E-03     212.038E-03     103.607E-03     104.830E-03
            2336               1     211.097E-03     213.891E-03     102.822E-03     103.311E-03
            2337               1     215.170E-03     218.800E-03     102.450E-03     103.827E-03
            2338               1     219.564E-03     222.248E-03     102.341E-03     102.972E-03
            2339               1     223.868E-03     227.439E-03     101.900E-03     103.198E-03
            2340               1     229.102E-03     231.990E-03     102.103E-03     102.847E-03
            2341               1     234.121E-03     237.607E-03     101.862E-03     103.039E-03
            2342               1     239.568E-03     242.669E-03     102.021E-03     102.870E-03
            2343               1     245.249E-03     248.677E-03     101.896E-03     102.989E-03
            2344               1     250.735E-03     253.970E-03     101.997E-03     102.906E-03
            2345               1     257.228E-03     260.636E-03     101.943E-03     102.995E-03
            2346               1     262.598E-03     265.915E-03     102.093E-03     103.027E-03
            2347               1     270.657E-03     274.042E-03     102.239E-03     103.280E-03
            2348               1     275.656E-03     279.018E-03     102.716E-03     103.647E-03
            2349               1     287.777E-03     290.882E-03     103.842E-03     104.858E-03
            2350               1     289.982E-03     293.706E-03     103.494E-03     104.591E-03
            2351               1     312.175E-03     314.830E-03     105.571E-03     107.002E-03
            2352               1     292.435E-03     296.044E-03     85.0327E-03     83.8071E-03
            2353               1     250.655E-03     249.970E-03     55.0729E-03     46.2449E-03
            2354               1     198.037E-03     198.919E-03     95.9609E-03     96.3043E-03
            2355               1     204.585E-03     205.421E-03     97.6972E-03     98.3049E-03
            2356               1     210.091E-03     210.424E-03     98.1215E-03     98.5584E-03
            2357               1     214.991E-03     215.974E-03     98.2196E-03     99.2914E-03
            2358               1     220.782E-03     220.687E-03     98.7190E-03     99.3003E-03
            2359               1     226.076E-03     226.344E-03     98.7004E-03     99.7291E-03
            2360               1     232.126E-03     231.533E-03     99.1753E-03     99.8513E-03
            2361               1     237.955E-03     237.390E-03     99.2172E-03     100.158E-03
            2362               1     244.270E-03     243.072E-03     99.7910E-03     100.529E-03
            2363               1     250.722E-03     249.343E-03     99.9471E-03     100.839E-03
            2364               1     257.471E-03     255.595E-03     100.967E-03     101.735E-03
            2365               1     264.847E-03     262.670E-03     101.360E-03     102.233E-03
            2366               1     272.312E-03     269.731E-03     103.539E-03     104.300E-03
            2367               1     281.469E-03     278.461E-03     104.526E-03     105.378E-03
            2368               1     289.724E-03     286.492E-03     109.067E-03     109.725E-03
            2369               1     303.918E-03     299.830E-03     111.021E-03     111.943E-03
            2370               1     311.547E-03     307.212E-03     117.870E-03     118.295E-03
            2371               1     347.322E-03     344.235E-03     115.630E-03     117.743E-03
            2372               1     306.739E-03     320.404E-03     60.6617E-03     62.8494E-03
            2373               1     185.164E-03     183.232E-03     88.5392E-03     88.3645E-03
            2374               1     197.023E-03     195.038E-03     92.2004E-03     92.3541E-03
            2375               1     204.068E-03     202.324E-03     93.6662E-03     93.9958E-03
            2376               1     211.116E-03     208.311E-03     94.7535E-03     94.9780E-03
            2377               1     217.130E-03     214.248E-03     95.2617E-03     95.6706E-03
            2378               1     223.640E-03     219.661E-03     95.8614E-03     96.1355E-03
            2379               1     229.715E-03     225.334E-03     96.1359E-03     96.5174E-03
            2380               1     236.406E-03     231.082E-03     96.7920E-03     97.0863E-03
            2381               1     242.774E-03     236.865E-03     97.0838E-03     97.4452E-03
            2382               1     249.996E-03     243.254E-03     98.2200E-03     98.5238E-03
            2383               1     256.747E-03     249.324E-03     98.7040E-03     99.0629E-03
            2384               1     264.952E-03     256.790E-03     101.035E-03     101.331E-03
            2385               1     272.107E-03     263.239E-03     101.909E-03     102.280E-03
            2386               1     282.002E-03     272.536E-03     106.692E-03     106.930E-03
            2387               1     289.416E-03     279.314E-03     107.712E-03     108.147E-03
            2388               1     302.884E-03     292.317E-03     117.020E-03     116.932E-03
            2389               1     311.779E-03     300.823E-03     114.520E-03     115.193E-03
            2390               1     341.780E-03     330.425E-03     132.266E-03     133.013E-03
            2391               1     423.467E-03     404.870E-03     104.108E-03     112.196E-03
            2392               1     43.7064E-03     42.9711E-03     24.7106E-03     24.6557E-03
            2393               1     41.0801E-03     40.5490E-03     22.5534E-03     22.8469E-03
            2394               1     40.4713E-03     39.2141E-03     21.8371E-03     21.7575E-03
            2395               1     38.9991E-03     37.8700E-03     20.6244E-03     20.7253E-03
            2396               1     38.5025E-03     37.1294E-03     20.1823E-03     20.1506E-03
            2397               1     37.7533E-03     36.4076E-03     19.5799E-03     19.6111E-03
            2398               1     37.3629E-03     35.9397E-03     19.2885E-03     19.2823E-03
            2399               1     37.0263E-03     35.5926E-03     19.0027E-03     19.0108E-03
            2400               1     36.5498E-03     35.0855E-03     18.6808E-03     18.6826E-03
            2401               1     36.3704E-03     34.8837E-03     18.5113E-03     18.5123E-03
            2402               1     35.5166E-03     34.0155E-03     17.9712E-03     17.9797E-03
            2403               1     35.2194E-03     33.6746E-03     17.7564E-03     17.7491E-03
            2404               1     33.4649E-03     31.9453E-03     16.7221E-03     16.7480E-03
            2405               1     32.5269E-03     30.8991E-03     16.2472E-03     16.2096E-03
            2406               1     28.9114E-03     27.4175E-03     14.3300E-03     14.3783E-03
            2407               1     26.3959E-03     24.6632E-03     13.3821E-03     13.2212E-03
            2408               1     19.3298E-03     18.1075E-03     10.2149E-03     10.1697E-03
            2409               1     16.3385E-03     15.9245E-03     9.38491E-03     8.62150E-03
            2410               1     23.7919E-03     30.8798E-03     4.15857E-03     2.14389E-03
            2411               1     40.7931E-03     41.2817E-03     22.6892E-03     23.3062E-03
            2412               1     39.9876E-03     39.2165E-03     21.7765E-03     21.7022E-03
            2413               1     38.6500E-03     38.1829E-03     20.4520E-03     20.7428E-03
            2414               1     38.3126E-03     37.3107E-03     20.1511E-03     20.0755E-03
            2415               1     37.5660E-03     36.7213E-03     19.4986E-03     19.6029E-03
            2416               1     37.2918E-03     36.3008E-03     19.3448E-03     19.3277E-03
            2417               1     37.0101E-03     36.0369E-03     19.0678E-03     19.0967E-03
            2418               1     36.7093E-03     35.7114E-03     18.8994E-03     18.9029E-03
            2419               1     36.6741E-03     35.6519E-03     18.7814E-03     18.7885E-03
            2420               1     36.2156E-03     35.2010E-03     18.5058E-03     18.5168E-03
            2421               1     36.3070E-03     35.2405E-03     18.4418E-03     18.4396E-03
            2422               1     35.4308E-03     34.4151E-03     17.9156E-03     17.9441E-03
            2423               1     35.4774E-03     34.3185E-03     17.8092E-03     17.7772E-03
            2424               1     33.5759E-03     32.5965E-03     16.7343E-03     16.8009E-03
            2425               1     32.9311E-03     31.5856E-03     16.3607E-03     16.2229E-03
            2426               1     28.6854E-03     27.7245E-03     14.3435E-03     14.3568E-03
            2427               1     25.4412E-03     23.8349E-03     13.1297E-03     12.6436E-03
            2428               1     17.6107E-03     16.4259E-03     10.1520E-03     9.23553E-03
            2429               1     14.2590E-03     10.8027E-03    -1.12773E-03    -1.16538E-03
            2430               1     40.1143E-03     39.9286E-03     22.3268E-03     22.2587E-03
            2431               1     38.3557E-03     38.3181E-03     20.5148E-03     20.7685E-03
            2432               1     37.4121E-03     36.8798E-03     19.7852E-03     19.6707E-03
            2433               1     36.7714E-03     36.4075E-03     19.0797E-03     19.2377E-03
            2434               1     36.5984E-03     36.0771E-03     19.0503E-03     19.0221E-03
            2435               1     36.5110E-03     36.0022E-03     18.8547E-03     18.9073E-03
            2436               1     36.4044E-03     35.8792E-03     18.8568E-03     18.8601E-03
            2437               1     36.5221E-03     35.9683E-03     18.8196E-03     18.8333E-03
            2438               1     36.3550E-03     35.8195E-03     18.7589E-03     18.7695E-03
            2439               1     36.6219E-03     36.0471E-03     18.7907E-03     18.7941E-03
            2440               1     36.3094E-03     35.7765E-03     18.6366E-03     18.6541E-03
            2441               1     36.7519E-03     36.1289E-03     18.7214E-03     18.7099E-03
            2442               1     36.0000E-03     35.5054E-03     18.3326E-03     18.3721E-03
            2443               1     36.3981E-03     35.6545E-03     18.3465E-03     18.2831E-03
            2444               1     34.1630E-03     33.7674E-03     17.2216E-03     17.2953E-03
            2445               1     32.6325E-03     31.8630E-03     16.3358E-03     16.1982E-03
            2446               1     26.3627E-03     26.0421E-03     13.6489E-03     13.5504E-03
            2447               1     13.7568E-03     14.9938E-03     7.35558E-03     7.85052E-03
            2448               1     2.83989E-03     1.56410E-03    -1.41020E-03    -413.563E-06
            2449               1     41.6761E-03     41.1097E-03     22.8522E-03     22.4039E-03
            2450               1     37.5251E-03     37.3296E-03     20.0549E-03     19.8449E-03
            2451               1     36.1550E-03     36.0532E-03     18.8707E-03     18.9141E-03
            2452               1     35.5344E-03     35.5661E-03     18.6053E-03     18.5921E-03
            2453               1     35.6734E-03     35.5685E-03     18.4924E-03     18.5233E-03
            2454               1     35.6486E-03     35.6337E-03     18.5815E-03     18.5958E-03
            2455               1     35.9789E-03     35.8725E-03     18.6556E-03     18.6633E-03
            2456               1     36.0054E-03     35.9511E-03     18.7380E-03     18.7518E-03
            2457               1     36.3681E-03     36.2674E-03     18.8371E-03     18.8406E-03
            2458               1     36.3711E-03     36.3028E-03     18.8983E-03     18.9090E-03
            2459               1     36.8625E-03     36.7538E-03     19.0400E-03     19.0427E-03
            2460               1     36.7716E-03     36.7134E-03     19.0729E-03     19.0836E-03
            2461               1     37.4353E-03     37.2828E-03     19.2419E-03     19.2338E-03
            2462               1     36.7492E-03     36.7448E-03     18.9883E-03     19.0112E-03
            2463               1     36.8703E-03     36.7008E-03     18.7295E-03     18.7220E-03
            2464               1     33.4414E-03     33.6699E-03     16.9274E-03     17.0558E-03
            2465               1     27.8567E-03     28.7374E-03     13.5352E-03     13.9461E-03
            2466               1     18.6091E-03     19.2442E-03     7.30790E-03     7.99447E-03
            2467               1     9.82054E-03     11.0749E-03    -1.46705E-03    -893.049E-06
            2468               1     42.0233E-03     41.3087E-03     22.3542E-03     21.7596E-03
            2469               1     37.1337E-03     37.0799E-03     19.5108E-03     19.3014E-03
            2470               1     35.0890E-03     35.6567E-03     18.5148E-03     18.5300E-03
            2471               1     35.0627E-03     35.2390E-03     18.3200E-03     18.2437E-03
            2472               1     34.7627E-03     35.2931E-03     18.2711E-03     18.3152E-03
            2473               1     35.2893E-03     35.5785E-03     18.4451E-03     18.4151E-03
            2474               1     35.3608E-03     35.7988E-03     18.5588E-03     18.5833E-03
            2475               1     35.8166E-03     36.1615E-03     18.7180E-03     18.7097E-03
            2476               1     35.9591E-03     36.3550E-03     18.8638E-03     18.8755E-03
            2477               1     36.3894E-03     36.7562E-03     19.0032E-03     19.0068E-03
            2478               1     36.5784E-03     36.9556E-03     19.2041E-03     19.2045E-03
            2479               1     37.0965E-03     37.4659E-03     19.3521E-03     19.3662E-03
            2480               1     37.2190E-03     37.5896E-03     19.5681E-03     19.5529E-03
            2481               1     37.7013E-03     38.0872E-03     19.5627E-03     19.6018E-03
            2482               1     36.8747E-03     37.3167E-03     19.2238E-03     19.2266E-03
            2483               1     36.0493E-03     36.6886E-03     18.0242E-03     18.2015E-03
            2484               1     30.7025E-03     31.6716E-03     13.9665E-03     14.4801E-03
            2485               1     24.3248E-03     25.9817E-03     8.25234E-03     8.83070E-03
            2486               1     21.9057E-03     21.6151E-03    -1.24332E-03    -335.757E-06
            2487               1     40.0436E-03     40.5242E-03     20.4918E-03     20.4041E-03
            2488               1     36.3103E-03     37.4987E-03     19.1301E-03     19.2808E-03
            2489               1     35.5180E-03     35.8654E-03     18.6973E-03     18.4475E-03
            2490               1     34.3874E-03     35.4873E-03     18.2366E-03     18.3481E-03
            2491               1     34.9165E-03     35.5128E-03     18.4411E-03     18.3255E-03
            2492               1     34.7540E-03     35.6893E-03     18.4110E-03     18.4587E-03
            2493               1     35.2651E-03     36.0147E-03     18.6086E-03     18.5707E-03
            2494               1     35.3906E-03     36.2528E-03     18.7249E-03     18.7437E-03
            2495               1     35.7646E-03     36.5773E-03     18.8532E-03     18.8473E-03
            2496               1     36.0133E-03     36.8394E-03     19.0639E-03     19.0663E-03
            2497               1     36.3109E-03     37.1485E-03     19.1359E-03     19.1490E-03
            2498               1     36.6621E-03     37.4514E-03     19.4524E-03     19.4320E-03
            2499               1     36.8774E-03     37.7567E-03     19.4013E-03     19.4493E-03
            2500               1     37.1761E-03     37.9324E-03     19.7080E-03     19.6497E-03
            2501               1     37.0871E-03     38.1152E-03     19.1649E-03     19.2913E-03
            2502               1     36.2774E-03     37.1600E-03     18.5219E-03     18.4883E-03
            2503               1     36.7413E-03     37.7649E-03     16.6310E-03     16.7180E-03
            2504               1     32.3011E-03     33.0894E-03     9.03787E-03     9.80579E-03
            2505               1     30.5029E-03     32.5253E-03     195.583E-06     995.784E-06
            2506               1     38.6239E-03     41.0870E-03     19.8754E-03     20.4538E-03
            2507               1     37.4703E-03     38.2507E-03     19.6365E-03     19.3600E-03
            2508               1     35.1766E-03     36.8662E-03     18.7273E-03     18.9344E-03
            2509               1     35.3702E-03     36.2506E-03     18.8558E-03     18.6571E-03
            2510               1     34.6215E-03     36.0246E-03     18.5037E-03     18.5765E-03
            2511               1     35.0146E-03     36.1372E-03     18.6654E-03     18.5920E-03
            2512               1     34.9363E-03     36.2509E-03     18.6401E-03     18.6663E-03
            2513               1     35.2442E-03     36.4824E-03     18.7496E-03     18.7310E-03
            2514               1     35.4369E-03     36.7174E-03     18.8909E-03     18.8984E-03
            2515               1     35.5959E-03     36.8756E-03     18.9152E-03     18.9177E-03
            2516               1     35.9335E-03     37.1819E-03     19.1718E-03     19.1626E-03
            2517               1     35.8719E-03     37.1893E-03     19.0349E-03     19.0622E-03
            2518               1     36.3212E-03     37.5319E-03     19.3754E-03     19.3346E-03
            2519               1     35.8992E-03     37.3414E-03     18.8630E-03     18.9488E-03
            2520               1     36.4506E-03     37.6771E-03     19.1510E-03     19.0456E-03
            2521               1     36.0791E-03     37.7758E-03     17.8995E-03     18.0133E-03
            2522               1     36.9406E-03     38.3660E-03     17.5525E-03     17.2718E-03
            2523               1     44.0163E-03     45.3525E-03     15.3276E-03     14.8706E-03
            2524               1     47.0073E-03     45.4560E-03     1.18936E-03     1.66406E-03
            2525               1     41.4984E-03     43.1031E-03     21.3332E-03     21.1339E-03
            2526               1     37.4207E-03     39.7339E-03     19.7528E-03     20.0152E-03
            2527               1     36.8873E-03     38.2449E-03     19.6989E-03     19.5369E-03
            2528               1     35.2755E-03     37.1011E-03     18.9307E-03     19.0051E-03
            2529               1     35.2278E-03     36.7722E-03     18.9250E-03     18.8572E-03
            2530               1     34.7587E-03     36.4994E-03     18.6747E-03     18.6985E-03
            2531               1     34.9056E-03     36.5728E-03     18.7288E-03     18.7089E-03
            2532               1     34.9607E-03     36.6847E-03     18.7617E-03     18.7693E-03
            2533               1     35.0569E-03     36.7724E-03     18.7783E-03     18.7751E-03
            2534               1     35.3486E-03     37.0612E-03     18.9595E-03     18.9589E-03
            2535               1     35.2125E-03     36.9575E-03     18.8254E-03     18.8320E-03
            2536               1     35.6150E-03     37.3243E-03     19.0727E-03     19.0600E-03
            2537               1     35.0182E-03     36.8474E-03     18.5864E-03     18.6149E-03
            2538               1     35.5127E-03     37.2852E-03     18.8067E-03     18.7657E-03
            2539               1     34.3248E-03     36.4321E-03     17.6118E-03     17.6834E-03
            2540               1     35.5508E-03     37.6353E-03     17.8312E-03     17.6953E-03
            2541               1     35.3597E-03     38.2529E-03     15.4218E-03     15.4878E-03
            2542               1     41.9996E-03     45.1507E-03     16.9787E-03     16.3710E-03
            2543               1     63.5409E-03     69.5690E-03     11.2533E-03     10.0943E-03
            2544               1     64.4983E-03     62.6355E-03     31.0420E-03     31.2094E-03
            2545               1     63.7567E-03     62.0967E-03     28.4566E-03     28.7902E-03
            2546               1     63.4515E-03     61.6110E-03     26.7951E-03     26.8618E-03
            2547               1     62.7234E-03     61.0457E-03     24.9736E-03     25.1291E-03
            2548               1     62.1983E-03     60.4764E-03     23.6606E-03     23.6962E-03
            2549               1     61.6098E-03     59.9691E-03     22.3819E-03     22.4503E-03
            2550               1     60.9868E-03     59.3335E-03     21.2901E-03     21.3141E-03
            2551               1     60.4769E-03     58.8562E-03     20.3137E-03     20.3425E-03
            2552               1     59.6412E-03     58.0125E-03     19.2046E-03     19.2228E-03
            2553               1     59.0056E-03     57.3820E-03     18.2776E-03     18.2889E-03
            2554               1     57.6916E-03     56.0599E-03     16.8829E-03     16.8995E-03
            2555               1     56.5647E-03     54.9004E-03     15.7390E-03     15.7328E-03
            2556               1     54.3542E-03     52.6715E-03     13.7775E-03     13.7909E-03
            2557               1     52.1225E-03     50.2934E-03     12.1219E-03     12.0629E-03
            2558               1     48.4038E-03     46.4666E-03     9.35604E-03     9.33160E-03
            2559               1     44.1232E-03     41.6728E-03     6.92209E-03     6.67291E-03
            2560               1     37.8626E-03     34.8022E-03     3.25535E-03     2.99254E-03
            2561               1     30.0003E-03     25.3700E-03     74.6428E-06    -987.432E-06
            2562               1     17.0720E-03     13.6057E-03    -3.95898E-03    -7.14692E-03
            2563               1     62.8048E-03     62.7363E-03     28.7575E-03     29.4207E-03
            2564               1     62.8258E-03     62.1702E-03     26.9109E-03     27.2077E-03
            2565               1     62.8056E-03     62.1027E-03     25.0935E-03     25.5333E-03
            2566               1     62.5750E-03     61.6127E-03     23.9228E-03     24.0666E-03
            2567               1     62.2343E-03     61.2784E-03     22.6627E-03     22.8874E-03
            2568               1     61.7902E-03     60.7673E-03     21.7654E-03     21.8524E-03
            2569               1     61.5260E-03     60.4859E-03     20.8871E-03     20.9888E-03
            2570               1     60.9642E-03     59.9223E-03     20.0488E-03     20.1069E-03
            2571               1     60.7705E-03     59.7000E-03     19.3310E-03     19.3757E-03
            2572               1     59.9951E-03     58.9399E-03     18.3475E-03     18.3904E-03
            2573               1     59.6909E-03     58.5822E-03     17.5847E-03     17.5952E-03
            2574               1     58.4388E-03     57.3583E-03     16.2231E-03     16.2563E-03
            2575               1     57.6112E-03     56.3918E-03     15.2018E-03     15.1430E-03
            2576               1     55.4007E-03     54.2228E-03     13.2080E-03     13.1954E-03
            2577               1     53.1770E-03     51.6695E-03     11.6884E-03     11.4117E-03
            2578               1     49.0203E-03     47.5443E-03     8.92341E-03     8.65020E-03
            2579               1     43.6043E-03     41.6738E-03     6.64266E-03     5.72555E-03
            2580               1     34.1594E-03     32.6024E-03     3.37710E-03     1.64552E-03
            2581               1     19.2568E-03     25.1954E-03    -4.55463E-03    -5.38136E-03
            2582               1     61.8446E-03     62.3085E-03     27.5605E-03     27.7091E-03
            2583               1     62.2438E-03     62.5691E-03     25.3322E-03     25.7411E-03
            2584               1     61.9786E-03     61.9446E-03     23.7844E-03     23.9368E-03
            2585               1     62.0015E-03     61.8321E-03     22.4722E-03     22.7958E-03
            2586               1     61.7348E-03     61.4554E-03     21.7186E-03     21.8402E-03
            2587               1     61.7533E-03     61.3491E-03     20.9576E-03     21.1273E-03
            2588               1     61.4276E-03     61.0298E-03     20.4081E-03     20.4981E-03
            2589               1     61.5741E-03     61.0831E-03     19.9118E-03     19.9906E-03
            2590               1     61.1824E-03     60.7239E-03     19.3291E-03     19.3919E-03
            2591               1     61.4148E-03     60.8789E-03     18.9004E-03     18.9333E-03
            2592               1     60.8052E-03     60.3205E-03     18.1000E-03     18.1450E-03
            2593               1     60.9346E-03     60.3308E-03     17.5818E-03     17.5635E-03
            2594               1     59.7403E-03     59.2461E-03     16.3010E-03     16.3190E-03
            2595               1     59.1397E-03     58.4200E-03     15.4560E-03     15.3087E-03
            2596               1     56.5497E-03     56.0774E-03     13.3615E-03     13.2553E-03
            2597               1     53.5328E-03     52.8925E-03     11.6838E-03     11.2609E-03
            2598               1     47.5722E-03     47.5010E-03     8.51375E-03     7.91243E-03
            2599               1     37.5852E-03     40.1763E-03     3.65401E-03     3.61235E-03
            2600               1     31.5590E-03     31.0629E-03    -4.05698E-03    -3.09244E-03
            2601               1     63.6838E-03     64.3009E-03     27.4837E-03     27.1827E-03
            2602               1     61.7551E-03     62.3739E-03     24.1991E-03     24.1045E-03
            2603               1     61.4470E-03     61.9710E-03     22.3860E-03     22.5741E-03
            2604               1     61.0078E-03     61.5113E-03     21.3887E-03     21.4587E-03
            2605               1     61.2135E-03     61.4417E-03     20.6361E-03     20.7970E-03
            2606               1     61.0052E-03     61.3116E-03     20.2733E-03     20.3695E-03
            2607               1     61.4330E-03     61.5275E-03     19.9720E-03     20.0572E-03
            2608               1     61.3049E-03     61.4717E-03     19.7252E-03     19.7990E-03
            2609               1     61.8779E-03     61.9147E-03     19.5725E-03     19.6153E-03
            2610               1     61.7051E-03     61.8054E-03     19.2481E-03     19.2980E-03
            2611               1     62.3839E-03     62.3749E-03     19.1077E-03     19.1221E-03
            2612               1     61.9125E-03     62.0091E-03     18.4979E-03     18.5283E-03
            2613               1     62.4391E-03     62.3809E-03     18.1991E-03     18.1626E-03
            2614               1     61.0532E-03     61.2442E-03     16.8660E-03     16.8644E-03
            2615               1     60.2461E-03     60.3248E-03     15.8856E-03     15.7718E-03
            2616               1     56.6381E-03     57.1953E-03     13.1417E-03     13.0514E-03
            2617               1     51.3457E-03     52.8704E-03     9.90030E-03     10.0250E-03
            2618               1     45.1552E-03     46.0400E-03     4.20167E-03     4.69290E-03
            2619               1     38.0296E-03     40.7179E-03    -2.96929E-03    -3.06219E-03
            2620               1     65.1063E-03     65.2627E-03     26.3755E-03     25.7288E-03
            2621               1     61.9750E-03     62.8882E-03     23.0992E-03     22.9509E-03
            2622               1     60.5585E-03     61.6021E-03     21.3034E-03     21.1605E-03
            2623               1     60.3534E-03     61.1109E-03     20.2328E-03     20.2625E-03
            2624               1     59.9613E-03     60.9706E-03     19.8321E-03     19.8809E-03
            2625               1     60.5482E-03     61.1938E-03     19.6398E-03     19.6702E-03
            2626               1     60.5388E-03     61.3534E-03     19.6057E-03     19.6722E-03
            2627               1     61.3372E-03     61.9305E-03     19.6671E-03     19.6882E-03
            2628               1     61.4450E-03     62.1343E-03     19.6887E-03     19.7363E-03
            2629               1     62.3872E-03     62.9489E-03     19.8122E-03     19.8315E-03
            2630               1     62.4106E-03     63.0581E-03     19.7354E-03     19.7646E-03
            2631               1     63.4882E-03     64.0248E-03     19.8202E-03     19.8370E-03
            2632               1     63.0345E-03     63.7423E-03     19.3222E-03     19.3456E-03
            2633               1     63.8613E-03     64.4676E-03     19.0436E-03     19.0694E-03
            2634               1     61.9895E-03     62.9707E-03     17.2218E-03     17.3034E-03
            2635               1     60.5218E-03     61.7769E-03     15.3790E-03     15.5628E-03
            2636               1     56.3271E-03     57.7098E-03     10.7709E-03     11.2245E-03
            2637               1     50.8227E-03     53.0529E-03     5.51200E-03     5.80585E-03
            2638               1     48.0166E-03     49.2095E-03    -2.56078E-03    -1.52469E-03
            2639               1     65.0438E-03     66.1792E-03     24.4580E-03     24.2127E-03
            2640               1     61.8614E-03     62.9655E-03     21.8595E-03     21.4394E-03
            2641               1     60.0079E-03     61.0852E-03     20.0255E-03     19.8496E-03
            2642               1     58.8799E-03     60.5008E-03     19.3601E-03     19.3274E-03
            2643               1     59.3300E-03     60.4286E-03     19.1523E-03     19.0471E-03
            2644               1     59.2044E-03     60.6591E-03     19.1627E-03     19.2035E-03
            2645               1     60.1316E-03     61.2381E-03     19.3755E-03     19.3270E-03
            2646               1     60.3716E-03     61.6547E-03     19.5885E-03     19.6252E-03
            2647               1     61.4232E-03     62.5289E-03     19.8860E-03     19.8772E-03
            2648               1     61.7458E-03     62.9405E-03     20.1441E-03     20.1651E-03
            2649               1     62.9555E-03     64.0547E-03     20.4457E-03     20.4685E-03
            2650               1     63.1287E-03     64.3195E-03     20.5834E-03     20.5957E-03
            2651               1     64.5573E-03     65.6845E-03     20.7495E-03     20.8192E-03
            2652               1     64.0634E-03     65.3910E-03     20.2035E-03     20.2609E-03
            2653               1     65.3625E-03     66.7109E-03     19.6324E-03     19.8294E-03
            2654               1     63.1515E-03     64.8322E-03     16.5700E-03     16.9320E-03
            2655               1     61.8049E-03     63.7335E-03     13.3568E-03     13.7327E-03
            2656               1     58.7473E-03     60.4774E-03     6.28829E-03     7.16131E-03
            2657               1     55.2302E-03     57.4882E-03    -954.926E-06    -563.884E-06
            2658               1     65.5392E-03     66.3756E-03     22.7009E-03     22.1369E-03
            2659               1     60.9329E-03     62.2510E-03     19.8075E-03     19.6273E-03
            2660               1     58.4238E-03     60.5427E-03     18.9907E-03     18.9294E-03
            2661               1     58.3140E-03     59.7462E-03     18.6964E-03     18.4272E-03
            2662               1     57.7445E-03     59.7876E-03     18.6201E-03     18.6359E-03
            2663               1     58.6565E-03     60.2068E-03     18.9309E-03     18.7694E-03
            2664               1     58.8602E-03     60.7207E-03     19.1838E-03     19.2031E-03
            2665               1     59.9397E-03     61.5542E-03     19.5911E-03     19.5234E-03
            2666               1     60.4005E-03     62.1481E-03     19.9932E-03     20.0036E-03
            2667               1     61.5545E-03     63.1941E-03     20.3958E-03     20.3914E-03
            2668               1     62.0617E-03     63.7586E-03     20.8617E-03     20.8612E-03
            2669               1     63.4323E-03     65.0903E-03     21.2087E-03     21.2662E-03
            2670               1     63.7917E-03     65.5113E-03     21.5267E-03     21.5353E-03
            2671               1     65.6695E-03     67.3984E-03     21.5964E-03     21.7603E-03
            2672               1     65.3833E-03     67.2677E-03     20.8884E-03     21.0225E-03
            2673               1     68.3203E-03     70.1396E-03     19.9273E-03     20.2401E-03
            2674               1     66.5331E-03     68.6813E-03     14.7256E-03     15.3963E-03
            2675               1     66.2546E-03     68.4906E-03     9.63187E-03     10.0612E-03
            2676               1     65.8444E-03     67.3046E-03    -50.2631E-06     916.431E-06
            2677               1     63.5240E-03     65.2564E-03     19.1037E-03     19.2369E-03
            2678               1     58.7465E-03     61.5323E-03     18.4445E-03     18.6280E-03
            2679               1     57.9843E-03     59.6840E-03     18.3080E-03     17.9294E-03
            2680               1     56.6001E-03     59.1903E-03     18.1143E-03     18.1722E-03
            2681               1     57.3316E-03     59.2454E-03     18.5310E-03     18.2449E-03
            2682               1     57.2959E-03     59.6912E-03     18.6995E-03     18.7112E-03
            2683               1     58.3196E-03     60.3990E-03     19.1736E-03     19.0315E-03
            2684               1     58.7800E-03     61.0723E-03     19.5714E-03     19.5727E-03
            2685               1     59.8275E-03     61.9892E-03     20.0132E-03     19.9666E-03
            2686               1     60.4648E-03     62.6969E-03     20.5653E-03     20.5578E-03
            2687               1     61.5809E-03     63.7748E-03     20.9471E-03     20.9689E-03
            2688               1     62.3050E-03     64.5018E-03     21.5963E-03     21.5803E-03
            2689               1     63.7645E-03     65.9894E-03     21.8322E-03     21.9407E-03
            2690               1     64.5666E-03     66.7742E-03     22.3720E-03     22.3738E-03
            2691               1     67.2664E-03     69.5133E-03     22.2187E-03     22.4541E-03
            2692               1     67.9832E-03     70.2947E-03     21.6410E-03     21.7672E-03
            2693               1     75.1915E-03     77.1501E-03     20.4830E-03     20.8042E-03
            2694               1     75.0382E-03     77.1517E-03     11.4170E-03     12.3123E-03
            2695               1     74.8056E-03     77.5568E-03     2.93666E-03     3.40905E-03
            2696               1     59.7953E-03     63.6893E-03     17.3774E-03     18.1366E-03
            2697               1     58.6684E-03     60.7386E-03     18.0135E-03     17.6476E-03
            2698               1     56.1353E-03     59.2605E-03     17.6949E-03     17.8914E-03
            2699               1     56.5389E-03     58.7800E-03     18.2887E-03     17.9470E-03
            2700               1     56.0574E-03     58.9178E-03     18.3016E-03     18.3299E-03
            2701               1     56.8790E-03     59.3908E-03     18.8006E-03     18.6129E-03
            2702               1     57.2037E-03     60.0098E-03     19.0997E-03     19.0983E-03
            2703               1     58.1070E-03     60.7791E-03     19.5438E-03     19.4660E-03
            2704               1     58.7523E-03     61.5323E-03     20.0489E-03     20.0416E-03
            2705               1     59.6448E-03     62.3799E-03     20.4236E-03     20.4114E-03
            2706               1     60.4644E-03     63.2075E-03     21.0906E-03     21.0740E-03
            2707               1     61.4356E-03     64.1906E-03     21.3287E-03     21.3755E-03
            2708               1     62.5260E-03     65.2279E-03     22.1425E-03     22.1148E-03
            2709               1     64.0341E-03     66.8022E-03     22.1013E-03     22.2346E-03
            2710               1     65.8524E-03     68.5251E-03     23.0570E-03     23.0162E-03
            2711               1     69.7716E-03     72.4817E-03     22.5269E-03     22.7618E-03
            2712               1     73.2655E-03     75.9001E-03     23.2557E-03     23.1782E-03
            2713               1     89.8026E-03     91.7974E-03     21.9676E-03     22.1306E-03
            2714               1     91.8834E-03     92.8332E-03     4.75533E-03     5.66527E-03
            2715               1     60.9820E-03     63.5730E-03     18.2419E-03     17.9621E-03
            2716               1     56.9664E-03     60.4837E-03     17.5470E-03     17.8457E-03
            2717               1     56.6522E-03     59.2282E-03     18.2751E-03     18.0499E-03
            2718               1     55.5156E-03     58.7359E-03     18.0806E-03     18.1390E-03
            2719               1     55.8590E-03     58.8126E-03     18.5129E-03     18.3905E-03
            2720               1     55.9031E-03     59.1807E-03     18.6761E-03     18.6832E-03
            2721               1     56.5510E-03     59.7467E-03     19.0744E-03     19.0201E-03
            2722               1     57.1172E-03     60.4419E-03     19.4895E-03     19.4881E-03
            2723               1     57.8341E-03     61.1261E-03     19.8545E-03     19.8372E-03
            2724               1     58.6569E-03     61.9786E-03     20.4445E-03     20.4384E-03
            2725               1     59.3512E-03     62.6625E-03     20.6943E-03     20.7017E-03
            2726               1     60.4351E-03     63.7272E-03     21.4234E-03     21.4087E-03
            2727               1     61.2036E-03     64.5103E-03     21.4057E-03     21.4464E-03
            2728               1     62.9371E-03     66.1914E-03     22.3341E-03     22.2991E-03
            2729               1     64.3679E-03     67.6790E-03     21.7986E-03     21.9000E-03
            2730               1     68.1600E-03     71.3841E-03     23.3926E-03     23.2816E-03
            2731               1     72.8379E-03     76.2404E-03     21.8650E-03     22.0689E-03
            2732               1     83.9375E-03     87.2324E-03     26.6671E-03     26.2325E-03
            2733               1     116.772E-03     121.020E-03     20.6082E-03     20.6697E-03
            2734               1     93.1756E-03     90.8268E-03     37.4891E-03     37.8929E-03
            2735               1     93.3779E-03     91.2376E-03     34.2376E-03     34.5105E-03
            2736               1     93.6367E-03     91.8780E-03     31.7657E-03     32.0150E-03
            2737               1     93.4945E-03     91.9479E-03     29.2332E-03     29.3875E-03
            2738               1     93.5225E-03     92.2575E-03     27.2335E-03     27.3756E-03
            2739               1     93.2159E-03     92.0971E-03     25.1283E-03     25.2169E-03
            2740               1     93.1545E-03     92.2121E-03     23.4741E-03     23.5496E-03
            2741               1     92.6271E-03     91.7721E-03     21.4884E-03     21.5402E-03
            2742               1     92.3970E-03     91.6477E-03     19.9495E-03     19.9889E-03
            2743               1     91.4796E-03     90.7731E-03     17.7566E-03     17.7857E-03
            2744               1     90.8557E-03     90.2062E-03     16.0605E-03     16.0767E-03
            2745               1     89.2946E-03     88.6351E-03     13.3256E-03     13.3303E-03
            2746               1     87.9219E-03     87.2465E-03     11.1753E-03     11.1544E-03
            2747               1     85.4158E-03     84.5997E-03     7.57430E-03     7.51635E-03
            2748               1     82.8871E-03     81.8522E-03     4.68132E-03     4.55458E-03
            2749               1     79.1758E-03     77.6056E-03    -117.719E-06    -399.219E-06
            2750               1     75.4077E-03     72.9540E-03    -3.90180E-03    -4.41804E-03
            2751               1     70.6585E-03     66.6327E-03    -10.6223E-03    -11.9021E-03
            2752               1     68.4880E-03     61.0351E-03    -13.4641E-03    -17.9099E-03
            2753               1     92.5060E-03     92.3345E-03     34.7856E-03     35.2337E-03
            2754               1     93.1952E-03     93.1110E-03     32.0371E-03     32.7580E-03
            2755               1     94.0453E-03     93.6183E-03     29.7147E-03     30.1257E-03
            2756               1     94.3659E-03     94.0267E-03     27.7359E-03     28.1967E-03
            2757               1     94.4771E-03     94.0853E-03     25.8618E-03     26.1362E-03
            2758               1     94.6813E-03     94.3419E-03     24.3280E-03     24.5874E-03
            2759               1     94.4836E-03     94.1781E-03     22.6577E-03     22.8290E-03
            2760               1     94.6814E-03     94.4032E-03     21.3520E-03     21.4902E-03
            2761               1     94.2416E-03     94.0011E-03     19.6212E-03     19.7213E-03
            2762               1     94.3526E-03     94.1214E-03     18.3103E-03     18.3809E-03
            2763               1     93.5477E-03     93.3278E-03     16.2420E-03     16.2821E-03
            2764               1     93.3247E-03     93.0736E-03     14.6835E-03     14.6870E-03
            2765               1     91.8911E-03     91.5962E-03     11.9987E-03     11.9376E-03
            2766               1     90.8922E-03     90.4774E-03     9.94111E-03     9.78688E-03
            2767               1     88.3711E-03     87.8004E-03     6.44281E-03     6.09873E-03
            2768               1     86.0649E-03     85.2752E-03     3.69296E-03     3.06304E-03
            2769               1     81.3211E-03     80.4444E-03    -565.474E-06    -1.75951E-03
            2770               1     77.5327E-03     77.1563E-03    -3.82159E-03    -6.44353E-03
            2771               1     61.6048E-03     70.2020E-03    -8.34300E-03    -9.84892E-03
            2772               1     91.7915E-03     93.2682E-03     32.6185E-03     33.0245E-03
            2773               1     93.5738E-03     94.5126E-03     30.0517E-03     30.3244E-03
            2774               1     94.0226E-03     94.8924E-03     27.6897E-03     28.2692E-03
            2775               1     94.7389E-03     95.3340E-03     25.9959E-03     26.3366E-03
            2776               1     95.1696E-03     95.6404E-03     24.5143E-03     24.9138E-03
            2777               1     95.3532E-03     95.7743E-03     23.1942E-03     23.4523E-03
            2778               1     95.8620E-03     96.1794E-03     22.1285E-03     22.3583E-03
            2779               1     95.8184E-03     96.1533E-03     20.8835E-03     21.0501E-03
            2780               1     96.4236E-03     96.6929E-03     19.9562E-03     20.0815E-03
            2781               1     96.1738E-03     96.4627E-03     18.5399E-03     18.6272E-03
            2782               1     96.7581E-03     96.9942E-03     17.5292E-03     17.5789E-03
            2783               1     96.1252E-03     96.3727E-03     15.6808E-03     15.6747E-03
            2784               1     96.3363E-03     96.5133E-03     14.3555E-03     14.2785E-03
            2785               1     94.9131E-03     95.1154E-03     11.8207E-03     11.6277E-03
            2786               1     93.9916E-03     94.1636E-03     9.89978E-03     9.49868E-03
            2787               1     90.8098E-03     91.2454E-03     6.62589E-03     6.03499E-03
            2788               1     87.4918E-03     88.3830E-03     3.79470E-03     2.58030E-03
            2789               1     79.1176E-03     83.3278E-03    -113.813E-06    -469.747E-06
            2790               1     71.5592E-03     72.3064E-03    -6.72885E-03    -5.80387E-03
            2791               1     93.9753E-03     95.4395E-03     31.6792E-03     31.1621E-03
            2792               1     93.3728E-03     95.2166E-03     27.8946E-03     28.1664E-03
            2793               1     94.3152E-03     95.8746E-03     25.9937E-03     26.1021E-03
            2794               1     94.6988E-03     96.0550E-03     24.2175E-03     24.5996E-03
            2795               1     95.2058E-03     96.4695E-03     23.1475E-03     23.3766E-03
            2796               1     95.8937E-03     96.8933E-03     22.2160E-03     22.4753E-03
            2797               1     96.1731E-03     97.1852E-03     21.4173E-03     21.6086E-03
            2798               1     97.0873E-03     97.9183E-03     20.8212E-03     20.9731E-03
            2799               1     97.2530E-03     98.1094E-03     20.0050E-03     20.1255E-03
            2800               1     98.3399E-03     99.0907E-03     19.4687E-03     19.5517E-03
            2801               1     98.2996E-03     99.0826E-03     18.3995E-03     18.4452E-03
            2802               1     99.3872E-03     100.097E-03     17.7151E-03     17.7203E-03
            2803               1     98.8316E-03     99.6368E-03     16.0774E-03     16.0244E-03
            2804               1     99.2993E-03     100.071E-03     14.9392E-03     14.7733E-03
            2805               1     97.5151E-03     98.6387E-03     12.3819E-03     12.1932E-03
            2806               1     95.8577E-03     97.1452E-03     10.2476E-03     9.74945E-03
            2807               1     91.1240E-03     93.9514E-03     6.51707E-03     6.50705E-03
            2808               1     85.2089E-03     87.1614E-03     1.95390E-03     2.10354E-03
            2809               1     77.9643E-03     81.7897E-03    -4.56316E-03    -5.00592E-03
            2810               1     94.8358E-03     96.6957E-03     29.2736E-03     28.9353E-03
            2811               1     94.3555E-03     96.3612E-03     26.4432E-03     26.0794E-03
            2812               1     93.9719E-03     95.9901E-03     23.8710E-03     24.0074E-03
            2813               1     94.3850E-03     96.4378E-03     22.7708E-03     22.8087E-03
            2814               1     95.0030E-03     96.6569E-03     21.7499E-03     21.9172E-03
            2815               1     95.4404E-03     97.1808E-03     21.2788E-03     21.4194E-03
            2816               1     96.5106E-03     97.9194E-03     20.9157E-03     21.0293E-03
            2817               1     96.9655E-03     98.4346E-03     20.5998E-03     20.7168E-03
            2818               1     98.3177E-03     99.5945E-03     20.4425E-03     20.5186E-03
            2819               1     98.7107E-03     100.031E-03     20.0494E-03     20.1170E-03
            2820               1     100.293E-03     101.508E-03     19.8815E-03     19.9292E-03
            2821               1     100.407E-03     101.716E-03     19.1355E-03     19.1550E-03
            2822               1     101.974E-03     103.220E-03     18.7148E-03     18.7084E-03
            2823               1     101.302E-03     102.864E-03     17.0796E-03     17.0821E-03
            2824               1     101.723E-03     103.269E-03     15.8324E-03     15.7255E-03
            2825               1     99.2161E-03     101.697E-03     12.5774E-03     12.7440E-03
            2826               1     96.1463E-03     98.3422E-03     9.28047E-03     9.38701E-03
            2827               1     91.1126E-03     94.4511E-03     3.62030E-03     3.84722E-03
            2828               1     85.7578E-03     88.8735E-03    -3.32676E-03    -2.49435E-03
            2829               1     96.3410E-03     98.0056E-03     27.2762E-03     26.6353E-03
            2830               1     94.1842E-03     96.4712E-03     23.7908E-03     23.6714E-03
            2831               1     93.6701E-03     96.2110E-03     22.3450E-03     22.0807E-03
            2832               1     93.7306E-03     95.8611E-03     20.9546E-03     20.9238E-03
            2833               1     93.9620E-03     96.3831E-03     20.6466E-03     20.6546E-03
            2834               1     95.0130E-03     96.9417E-03     20.3885E-03     20.3777E-03
            2835               1     95.5866E-03     97.6766E-03     20.4378E-03     20.5020E-03
            2836               1     97.0400E-03     98.8259E-03     20.5575E-03     20.5679E-03
            2837               1     97.7226E-03     99.5853E-03     20.6847E-03     20.7375E-03
            2838               1     99.4827E-03     101.188E-03     20.8938E-03     20.9274E-03
            2839               1     100.083E-03     101.863E-03     20.9032E-03     20.9388E-03
            2840               1     102.165E-03     103.859E-03     21.0321E-03     21.0873E-03
            2841               1     102.359E-03     104.266E-03     20.5034E-03     20.5618E-03
            2842               1     104.480E-03     106.304E-03     20.1780E-03     20.2644E-03
            2843               1     103.561E-03     106.020E-03     18.0374E-03     18.2647E-03
            2844               1     103.885E-03     106.110E-03     16.1293E-03     16.3495E-03
            2845               1     101.058E-03     104.242E-03     11.1133E-03     11.6004E-03
            2846               1     97.4549E-03     100.455E-03     5.94512E-03     6.48215E-03
            2847               1     94.2202E-03     96.9986E-03    -1.51874E-03    -1.07182E-03
            2848               1     95.9332E-03     98.4864E-03     23.7477E-03     23.7209E-03
            2849               1     93.9865E-03     96.6365E-03     21.8314E-03     21.3981E-03
            2850               1     92.8021E-03     95.1434E-03     19.9374E-03     19.7200E-03
            2851               1     92.2271E-03     95.2013E-03     19.6641E-03     19.5412E-03
            2852               1     93.0418E-03     95.3469E-03     19.4357E-03     19.2268E-03
            2853               1     93.4699E-03     96.1354E-03     19.7062E-03     19.6870E-03
            2854               1     94.9110E-03     97.1442E-03     20.0236E-03     19.9051E-03
            2855               1     95.7317E-03     98.1258E-03     20.4967E-03     20.5038E-03
            2856               1     97.4825E-03     99.6559E-03     20.9622E-03     20.9276E-03
            2857               1     98.3964E-03     100.649E-03     21.4958E-03     21.5103E-03
            2858               1     100.512E-03     102.657E-03     21.9723E-03     22.0114E-03
            2859               1     101.311E-03     103.571E-03     22.3539E-03     22.3965E-03
            2860               1     103.982E-03     106.160E-03     22.6643E-03     22.7995E-03
            2861               1     104.280E-03     106.807E-03     22.1976E-03     22.3654E-03
            2862               1     107.468E-03     109.800E-03     21.7503E-03     22.0689E-03
            2863               1     106.522E-03     109.642E-03     18.3300E-03     18.8052E-03
            2864               1     107.276E-03     110.043E-03     15.1633E-03     15.6948E-03
            2865               1     105.133E-03     108.376E-03     7.74814E-03     8.50430E-03
            2866               1     101.331E-03     105.087E-03     548.293E-06     1.10677E-03
            2867               1     96.1283E-03     98.5079E-03     21.1097E-03     20.6808E-03
            2868               1     92.7577E-03     95.1918E-03     18.4490E-03     18.2923E-03
            2869               1     90.6981E-03     94.1073E-03     18.3013E-03     18.1889E-03
            2870               1     91.0646E-03     93.5738E-03     18.1803E-03     17.7759E-03
            2871               1     91.0042E-03     94.1486E-03     18.5761E-03     18.4965E-03
            2872               1     92.3403E-03     94.9166E-03     19.0707E-03     18.7846E-03
            2873               1     93.1294E-03     96.0064E-03     19.7357E-03     19.6859E-03
            2874               1     94.7884E-03     97.3847E-03     20.3772E-03     20.2372E-03
            2875               1     95.8647E-03     98.5881E-03     21.2056E-03     21.1816E-03
            2876               1     97.7928E-03     100.388E-03     21.8744E-03     21.8497E-03
            2877               1     98.9417E-03     101.607E-03     22.7928E-03     22.7978E-03
            2878               1     101.382E-03     103.977E-03     23.4197E-03     23.5120E-03
            2879               1     102.473E-03     105.205E-03     24.1777E-03     24.2566E-03
            2880               1     106.031E-03     108.650E-03     24.5482E-03     24.8290E-03
            2881               1     106.736E-03     109.743E-03     24.1081E-03     24.3857E-03
            2882               1     112.451E-03     115.135E-03     23.4685E-03     24.0530E-03
            2883               1     112.045E-03     115.565E-03     17.6768E-03     18.4207E-03
            2884               1     113.266E-03     116.437E-03     12.5101E-03     13.0945E-03
            2885               1     111.975E-03     114.810E-03     2.37642E-03     3.43760E-03
            2886               1     94.2065E-03     96.7984E-03     16.0928E-03     16.3042E-03
            2887               1     89.5877E-03     93.4674E-03     16.3309E-03     16.5411E-03
            2888               1     89.4452E-03     92.0283E-03     16.6547E-03     16.1222E-03
            2889               1     88.5455E-03     92.0549E-03     17.1379E-03     17.1099E-03
            2890               1     89.7015E-03     92.4924E-03     17.8923E-03     17.4486E-03
            2891               1     90.2790E-03     93.5478E-03     18.6316E-03     18.5523E-03
            2892               1     91.8025E-03     94.7532E-03     19.4163E-03     19.1665E-03
            2893               1     92.9144E-03     96.0809E-03     20.3656E-03     20.3076E-03
            2894               1     94.6139E-03     97.6466E-03     21.1373E-03     21.0370E-03
            2895               1     95.9250E-03     99.0407E-03     22.2777E-03     22.2488E-03
            2896               1     97.9143E-03     100.969E-03     23.0216E-03     23.0399E-03
            2897               1     99.3769E-03     102.470E-03     24.3284E-03     24.3385E-03
            2898               1     102.141E-03     105.179E-03     24.9756E-03     25.1462E-03
            2899               1     103.851E-03     106.973E-03     26.2491E-03     26.3448E-03
            2900               1     108.813E-03     111.792E-03     26.5846E-03     27.0208E-03
            2901               1     110.723E-03     113.982E-03     26.6469E-03     26.9597E-03
            2902               1     122.082E-03     124.880E-03     26.0050E-03     26.8416E-03
            2903               1     122.617E-03     126.389E-03     15.5073E-03     16.5853E-03
            2904               1     121.596E-03     125.297E-03     6.61784E-03     6.90450E-03
            2905               1     89.0141E-03     93.4943E-03     13.4586E-03     14.3294E-03
            2906               1     88.4673E-03     91.0783E-03     14.9510E-03     14.4023E-03
            2907               1     86.4512E-03     90.1611E-03     15.4860E-03     15.6397E-03
            2908               1     87.3145E-03     90.1925E-03     16.6316E-03     16.1305E-03
            2909               1     87.5288E-03     91.0488E-03     17.3719E-03     17.3219E-03
            2910               1     88.8378E-03     92.0625E-03     18.2843E-03     17.9846E-03
            2911               1     89.8733E-03     93.4199E-03     19.2492E-03     19.1850E-03
            2912               1     91.3497E-03     94.7947E-03     20.0753E-03     19.9321E-03
            2913               1     92.7058E-03     96.2856E-03     21.2558E-03     21.2138E-03
            2914               1     94.3115E-03     97.8487E-03     22.0348E-03     21.9962E-03
            2915               1     95.8872E-03     99.4566E-03     23.4549E-03     23.4340E-03
            2916               1     97.8310E-03     101.367E-03     24.1537E-03     24.2137E-03
            2917               1     99.8273E-03     103.339E-03     25.8802E-03     25.8860E-03
            2918               1     102.863E-03     106.314E-03     26.3924E-03     26.6113E-03
            2919               1     105.898E-03     109.296E-03     28.5418E-03     28.5955E-03
            2920               1     112.626E-03     115.851E-03     28.6730E-03     29.1863E-03
            2921               1     117.691E-03     120.926E-03     30.8992E-03     31.1130E-03
            2922               1     141.009E-03     143.564E-03     30.2417E-03     31.3377E-03
            2923               1     140.221E-03     144.000E-03     9.47522E-03     11.0296E-03
            2924               1     88.5619E-03     91.0398E-03     13.5628E-03     13.1485E-03
            2925               1     85.3677E-03     88.9036E-03     13.9213E-03     14.2299E-03
            2926               1     85.5472E-03     88.3159E-03     15.4305E-03     15.1169E-03
            2927               1     85.2754E-03     88.8306E-03     16.1280E-03     16.1587E-03
            2928               1     86.1600E-03     89.5674E-03     17.0817E-03     16.9019E-03
            2929               1     87.0021E-03     90.8422E-03     18.0233E-03     18.0008E-03
            2930               1     88.2041E-03     92.0377E-03     18.8484E-03     18.7588E-03
            2931               1     89.5176E-03     93.5505E-03     20.0018E-03     19.9805E-03
            2932               1     90.8433E-03     94.8780E-03     20.7867E-03     20.7514E-03
            2933               1     92.4235E-03     96.5254E-03     22.1566E-03     22.1416E-03
            2934               1     93.8560E-03     97.9397E-03     22.8706E-03     22.8746E-03
            2935               1     95.8158E-03     99.8890E-03     24.5176E-03     24.5046E-03
            2936               1     97.5989E-03     101.621E-03     25.0521E-03     25.1099E-03
            2937               1     100.517E-03     104.455E-03     27.1938E-03     27.1719E-03
            2938               1     103.517E-03     107.350E-03     27.3325E-03     27.5036E-03
            2939               1     109.156E-03     112.776E-03     30.7855E-03     30.7175E-03
            2940               1     116.620E-03     120.057E-03     29.9808E-03     30.4206E-03
            2941               1     131.372E-03     134.245E-03     38.4174E-03     38.2464E-03
            2942               1     175.079E-03     177.238E-03     31.4719E-03     33.0404E-03
            2943               1     123.323E-03     120.723E-03     42.9898E-03     43.5665E-03
            2944               1     124.113E-03     121.931E-03     39.1478E-03     39.4020E-03
            2945               1     124.957E-03     123.402E-03     35.9509E-03     36.3207E-03
            2946               1     125.418E-03     124.272E-03     32.8369E-03     33.0164E-03
            2947               1     126.125E-03     125.414E-03     30.2953E-03     30.5078E-03
            2948               1     126.410E-03     125.982E-03     27.5933E-03     27.7070E-03
            2949               1     127.028E-03     126.872E-03     25.4604E-03     25.5735E-03
            2950               1     127.055E-03     127.071E-03     22.8155E-03     22.8850E-03
            2951               1     127.480E-03     127.659E-03     20.7997E-03     20.8574E-03
            2952               1     127.078E-03     127.355E-03     17.8212E-03     17.8623E-03
            2953               1     127.097E-03     127.459E-03     15.6040E-03     15.6251E-03
            2954               1     126.050E-03     126.437E-03     11.8737E-03     11.8863E-03
            2955               1     125.377E-03     125.741E-03     9.12164E-03     9.08586E-03
            2956               1     123.500E-03     123.734E-03     4.19325E-03     4.13664E-03
            2957               1     121.958E-03     121.895E-03     604.334E-06     417.203E-06
            2958               1     119.334E-03     118.690E-03    -6.12389E-03    -6.42466E-03
            2959               1     117.669E-03     115.916E-03    -10.6115E-03    -11.3142E-03
            2960               1     115.797E-03     112.203E-03    -20.9108E-03    -22.3278E-03
            2961               1     124.211E-03     115.633E-03    -22.9921E-03    -28.4681E-03
            2962               1     123.310E-03     123.588E-03     39.7848E-03     40.1188E-03
            2963               1     124.688E-03     125.133E-03     36.2677E-03     37.2555E-03
            2964               1     126.037E-03     126.200E-03     33.4463E-03     33.9081E-03
            2965               1     127.065E-03     127.384E-03     30.8927E-03     31.5619E-03
            2966               1     127.755E-03     128.088E-03     28.5215E-03     28.8684E-03
            2967               1     128.698E-03     129.133E-03     26.5215E-03     26.9064E-03
            2968               1     129.076E-03     129.600E-03     24.3103E-03     24.5371E-03
            2969               1     130.029E-03     130.614E-03     22.5752E-03     22.7807E-03
            2970               1     130.139E-03     130.802E-03     20.2125E-03     20.3494E-03
            2971               1     131.035E-03     131.722E-03     18.4577E-03     18.5586E-03
            2972               1     130.758E-03     131.491E-03     15.6040E-03     15.6659E-03
            2973               1     131.400E-03     132.089E-03     13.5466E-03     13.5446E-03
            2974               1     130.511E-03     131.192E-03     9.84596E-03     9.78538E-03
            2975               1     130.630E-03     131.130E-03     7.20510E-03     6.97940E-03
            2976               1     128.758E-03     129.154E-03     2.38551E-03     1.98933E-03
            2977               1     128.468E-03     128.518E-03    -1.03249E-03    -1.88239E-03
            2978               1     124.586E-03     124.675E-03    -6.83236E-03    -8.24262E-03
            2979               1     126.848E-03     127.316E-03    -10.7409E-03    -14.0210E-03
            2980               1     108.478E-03     119.282E-03    -11.3410E-03    -13.4602E-03
            2981               1     123.211E-03     125.483E-03     36.5867E-03     37.0356E-03
            2982               1     125.410E-03     127.339E-03     33.5608E-03     33.8525E-03
            2983               1     126.743E-03     128.461E-03     30.7528E-03     31.5748E-03
            2984               1     127.978E-03     129.490E-03     28.6630E-03     29.0895E-03
            2985               1     129.216E-03     130.537E-03     26.7692E-03     27.3576E-03
            2986               1     129.964E-03     131.273E-03     25.0363E-03     25.3746E-03
            2987               1     131.290E-03     132.468E-03     23.6052E-03     23.9482E-03
            2988               1     131.811E-03     133.032E-03     21.8903E-03     22.1140E-03
            2989               1     133.281E-03     134.423E-03     20.6072E-03     20.7917E-03
            2990               1     133.579E-03     134.767E-03     18.6202E-03     18.7436E-03
            2991               1     135.126E-03     136.239E-03     17.2260E-03     17.2930E-03
            2992               1     135.034E-03     136.201E-03     14.6551E-03     14.6610E-03
            2993               1     136.410E-03     137.454E-03     12.8861E-03     12.7673E-03
            2994               1     135.555E-03     136.710E-03     9.46473E-03     9.23526E-03
            2995               1     136.305E-03     137.337E-03     7.02572E-03     6.46348E-03
            2996               1     133.746E-03     135.226E-03     2.96657E-03     2.22514E-03
            2997               1     133.510E-03     135.375E-03    -384.292E-06    -1.98561E-03
            2998               1     125.421E-03     131.189E-03    -2.68886E-03    -3.36687E-03
            2999               1     116.263E-03     118.186E-03    -8.76401E-03    -7.78858E-03
            3000               1     124.976E-03     127.737E-03     34.2710E-03     33.7896E-03
            3001               1     125.724E-03     128.588E-03     30.4984E-03     30.8734E-03
            3002               1     127.246E-03     130.007E-03     28.3260E-03     28.5043E-03
            3003               1     128.578E-03     130.903E-03     26.2972E-03     26.8595E-03
            3004               1     129.632E-03     131.935E-03     24.9495E-03     25.2579E-03
            3005               1     131.196E-03     133.104E-03     23.7512E-03     24.1410E-03
            3006               1     132.038E-03     133.984E-03     22.6439E-03     22.8980E-03
            3007               1     133.855E-03     135.555E-03     21.7927E-03     22.0214E-03
            3008               1     134.584E-03     136.326E-03     20.6113E-03     20.7751E-03
            3009               1     136.670E-03     138.265E-03     19.8132E-03     19.9331E-03
            3010               1     137.187E-03     138.848E-03     18.2903E-03     18.3599E-03
            3011               1     139.452E-03     140.991E-03     17.3124E-03     17.3126E-03
            3012               1     139.470E-03     141.187E-03     15.1196E-03     15.0576E-03
            3013               1     141.410E-03     143.018E-03     13.6371E-03     13.3900E-03
            3014               1     140.263E-03     142.404E-03     10.5879E-03     10.3201E-03
            3015               1     140.498E-03     142.713E-03     8.10505E-03     7.39232E-03
            3016               1     136.419E-03     140.535E-03     4.88766E-03     4.70152E-03
            3017               1     130.684E-03     133.739E-03     463.411E-06     478.829E-06
            3018               1     122.241E-03     127.373E-03    -5.21227E-03    -5.98229E-03
            3019               1     125.782E-03     128.870E-03     30.7826E-03     30.4033E-03
            3020               1     126.491E-03     129.885E-03     27.9575E-03     27.6596E-03
            3021               1     127.296E-03     130.405E-03     25.4194E-03     25.6499E-03
            3022               1     128.336E-03     131.617E-03     24.2050E-03     24.3011E-03
            3023               1     129.918E-03     132.552E-03     23.0760E-03     23.3416E-03
            3024               1     130.923E-03     133.693E-03     22.4576E-03     22.6463E-03
            3025               1     132.920E-03     135.221E-03     21.9619E-03     22.1427E-03
            3026               1     133.946E-03     136.323E-03     21.4706E-03     21.6240E-03
            3027               1     136.293E-03     138.406E-03     21.1771E-03     21.2936E-03
            3028               1     137.260E-03     139.435E-03     20.5709E-03     20.6645E-03
            3029               1     139.993E-03     142.010E-03     20.2572E-03     20.3225E-03
            3030               1     140.692E-03     142.863E-03     19.2490E-03     19.2800E-03
            3031               1     143.646E-03     145.692E-03     18.6612E-03     18.6389E-03
            3032               1     143.627E-03     146.138E-03     16.7559E-03     16.7362E-03
            3033               1     145.606E-03     148.011E-03     15.3228E-03     15.1338E-03
            3034               1     143.827E-03     147.462E-03     12.1239E-03     12.2139E-03
            3035               1     141.472E-03     144.678E-03     8.79446E-03     8.78304E-03
            3036               1     136.384E-03     141.016E-03     3.56060E-03     3.64353E-03
            3037               1     129.338E-03     133.982E-03    -3.30172E-03    -2.50310E-03
            3038               1     127.021E-03     129.979E-03     27.5596E-03     26.9868E-03
            3039               1     126.331E-03     129.819E-03     24.3466E-03     24.2495E-03
            3040               1     126.744E-03     130.645E-03     23.0188E-03     22.7942E-03
            3041               1     127.909E-03     131.079E-03     21.7353E-03     21.7263E-03
            3042               1     128.761E-03     132.312E-03     21.4534E-03     21.4788E-03
            3043               1     130.773E-03     133.621E-03     21.2173E-03     21.2273E-03
            3044               1     131.934E-03     134.971E-03     21.2663E-03     21.3433E-03
            3045               1     134.360E-03     136.983E-03     21.3831E-03     21.4126E-03
            3046               1     135.632E-03     138.344E-03     21.5044E-03     21.5710E-03
            3047               1     138.482E-03     140.973E-03     21.7074E-03     21.7583E-03
            3048               1     139.680E-03     142.279E-03     21.7115E-03     21.7621E-03
            3049               1     143.060E-03     145.517E-03     21.8363E-03     21.9073E-03
            3050               1     143.894E-03     146.665E-03     21.3060E-03     21.3770E-03
            3051               1     147.541E-03     150.160E-03     20.9782E-03     21.0759E-03
            3052               1     147.366E-03     150.849E-03     18.8460E-03     19.0700E-03
            3053               1     148.860E-03     151.985E-03     16.9352E-03     17.1433E-03
            3054               1     146.474E-03     150.903E-03     11.9353E-03     12.3941E-03
            3055               1     142.389E-03     146.585E-03     6.77426E-03     7.24445E-03
            3056               1     138.224E-03     142.161E-03    -704.356E-06    -287.364E-06
            3057               1     126.329E-03     130.132E-03     22.9073E-03     22.9660E-03
            3058               1     125.715E-03     129.729E-03     21.3777E-03     20.9788E-03
            3059               1     125.820E-03     129.227E-03     19.7938E-03     19.5242E-03
            3060               1     125.996E-03     130.149E-03     19.7479E-03     19.6083E-03
            3061               1     127.828E-03     131.058E-03     19.7244E-03     19.4592E-03
            3062               1     128.887E-03     132.523E-03     20.1628E-03     20.1205E-03
            3063               1     131.283E-03     134.347E-03     20.6232E-03     20.4765E-03
            3064               1     132.718E-03     135.956E-03     21.2666E-03     21.2622E-03
            3065               1     135.485E-03     138.429E-03     21.8586E-03     21.8188E-03
            3066               1     137.015E-03     140.054E-03     22.5960E-03     22.6124E-03
            3067               1     140.306E-03     143.185E-03     23.2089E-03     23.2626E-03
            3068               1     141.740E-03     144.788E-03     23.8459E-03     23.9062E-03
            3069               1     145.837E-03     148.746E-03     24.3184E-03     24.4978E-03
            3070               1     146.836E-03     150.233E-03     24.1244E-03     24.3332E-03
            3071               1     151.636E-03     154.769E-03     23.8587E-03     24.2733E-03
            3072               1     151.387E-03     155.618E-03     20.4099E-03     20.9362E-03
            3073               1     152.851E-03     156.574E-03     17.2727E-03     17.8620E-03
            3074               1     150.500E-03     155.076E-03     9.45196E-03     10.2913E-03
            3075               1     145.057E-03     150.270E-03     2.21072E-03     2.61822E-03
            3076               1     126.074E-03     129.737E-03     19.2037E-03     18.8519E-03
            3077               1     124.263E-03     127.701E-03     17.0280E-03     16.7949E-03
            3078               1     123.079E-03     127.611E-03     17.3258E-03     17.1738E-03
            3079               1     124.537E-03     127.923E-03     17.6018E-03     17.0545E-03
            3080               1     125.186E-03     129.262E-03     18.3338E-03     18.1935E-03
            3081               1     127.473E-03     130.843E-03     19.1300E-03     18.7503E-03
            3082               1     128.924E-03     132.615E-03     20.1181E-03     20.0252E-03
            3083               1     131.534E-03     134.875E-03     21.0159E-03     20.8326E-03
            3084               1     133.257E-03     136.736E-03     22.2094E-03     22.1654E-03
            3085               1     136.230E-03     139.537E-03     23.1347E-03     23.1031E-03
            3086               1     138.029E-03     141.430E-03     24.5029E-03     24.5105E-03
            3087               1     141.706E-03     144.989E-03     25.4194E-03     25.5444E-03
            3088               1     143.479E-03     146.965E-03     26.7295E-03     26.8457E-03
            3089               1     148.598E-03     151.910E-03     27.4421E-03     27.8300E-03
            3090               1     150.020E-03     153.887E-03     27.4967E-03     27.8775E-03
            3091               1     157.708E-03     161.206E-03     27.2015E-03     28.0232E-03
            3092               1     157.766E-03     162.552E-03     20.9367E-03     21.8245E-03
            3093               1     159.103E-03     163.240E-03     15.6317E-03     16.2581E-03
            3094               1     156.379E-03     160.652E-03     4.64431E-03     6.01599E-03
            3095               1     123.997E-03     127.405E-03     13.0777E-03     13.2432E-03
            3096               1     120.283E-03     125.071E-03     13.9877E-03     14.1613E-03
            3097               1     121.293E-03     124.604E-03     14.9115E-03     14.1656E-03
            3098               1     121.199E-03     125.484E-03     15.8986E-03     15.7831E-03
            3099               1     123.312E-03     126.797E-03     17.1198E-03     16.5193E-03
            3100               1     124.626E-03     128.620E-03     18.3212E-03     18.1721E-03
            3101               1     127.060E-03     130.698E-03     19.4907E-03     19.1572E-03
            3102               1     128.868E-03     132.741E-03     20.9301E-03     20.8314E-03
            3103               1     131.506E-03     135.222E-03     22.0631E-03     21.9296E-03
            3104               1     133.498E-03     137.311E-03     23.7813E-03     23.7362E-03
            3105               1     136.527E-03     140.250E-03     24.9099E-03     24.9340E-03
            3106               1     138.683E-03     142.468E-03     26.9401E-03     26.9620E-03
            3107               1     142.713E-03     146.390E-03     28.0313E-03     28.2659E-03
            3108               1     145.164E-03     148.983E-03     30.1875E-03     30.3527E-03
            3109               1     151.924E-03     155.525E-03     31.0403E-03     31.6684E-03
            3110               1     154.560E-03     158.606E-03     31.8795E-03     32.3982E-03
            3111               1     169.023E-03     172.611E-03     31.7458E-03     33.0478E-03
            3112               1     169.297E-03     174.760E-03     19.7195E-03     21.0950E-03
            3113               1     166.840E-03     171.368E-03     10.3042E-03     10.3665E-03
            3114               1     117.858E-03     122.736E-03     9.43660E-03     10.3205E-03
            3115               1     118.418E-03     121.420E-03     11.7906E-03     10.9911E-03
            3116               1     117.317E-03     121.461E-03     12.9936E-03     13.0647E-03
            3117               1     119.138E-03     122.498E-03     14.7784E-03     14.0927E-03
            3118               1     120.196E-03     124.255E-03     16.1147E-03     15.9900E-03
            3119               1     122.401E-03     126.200E-03     17.5372E-03     17.1339E-03
            3120               1     124.207E-03     128.369E-03     19.0951E-03     18.9833E-03
            3121               1     126.554E-03     130.634E-03     20.3752E-03     20.1838E-03
            3122               1     128.636E-03     132.874E-03     22.2131E-03     22.1459E-03
            3123               1     131.131E-03     135.326E-03     23.4478E-03     23.3953E-03
            3124               1     133.423E-03     137.662E-03     25.6646E-03     25.6362E-03
            3125               1     136.347E-03     140.524E-03     26.8674E-03     26.9473E-03
            3126               1     139.108E-03     143.267E-03     29.6124E-03     29.6376E-03
            3127               1     143.392E-03     147.419E-03     30.7092E-03     31.0163E-03
            3128               1     147.325E-03     151.304E-03     34.1708E-03     34.3190E-03
            3129               1     156.171E-03     159.846E-03     34.9663E-03     35.7427E-03
            3130               1     162.260E-03     166.029E-03     38.7002E-03     39.2502E-03
            3131               1     191.425E-03     194.479E-03     38.6429E-03     40.6197E-03
            3132               1     187.359E-03     193.978E-03     14.1011E-03     16.3495E-03
            3133               1     116.312E-03     118.420E-03     8.75109E-03     8.18192E-03
            3134               1     114.220E-03     117.573E-03     9.98089E-03     10.2648E-03
            3135               1     115.356E-03     118.172E-03     12.2972E-03     11.8765E-03
            3136               1     116.057E-03     119.834E-03     13.7417E-03     13.7377E-03
            3137               1     117.867E-03     121.634E-03     15.3183E-03     15.0779E-03
            3138               1     119.571E-03     123.882E-03     16.9502E-03     16.9032E-03
            3139               1     121.627E-03     126.006E-03     18.3072E-03     18.1879E-03
            3140               1     123.723E-03     128.358E-03     20.1691E-03     20.1335E-03
            3141               1     125.847E-03     130.518E-03     21.4602E-03     21.4130E-03
            3142               1     128.169E-03     132.931E-03     23.6401E-03     23.6174E-03
            3143               1     130.382E-03     135.130E-03     24.8887E-03     24.8932E-03
            3144               1     133.107E-03     137.845E-03     27.5426E-03     27.5274E-03
            3145               1     135.733E-03     140.384E-03     28.6830E-03     28.7607E-03
            3146               1     139.564E-03     144.094E-03     32.1558E-03     32.1433E-03
            3147               1     143.669E-03     147.982E-03     32.9879E-03     33.2278E-03
            3148               1     150.696E-03     154.666E-03     38.3629E-03     38.3474E-03
            3149               1     160.242E-03     163.723E-03     38.2442E-03     38.9079E-03
            3150               1     178.182E-03     180.663E-03     50.2160E-03     50.3225E-03
            3151               1     232.298E-03     232.560E-03     42.2723E-03     45.3039E-03
            3152               1     147.514E-03     144.980E-03     41.9126E-03     42.5455E-03
            3153               1     149.025E-03     147.614E-03     37.9055E-03     38.2915E-03
            3154               1     150.771E-03     149.816E-03     34.5681E-03     34.8985E-03
            3155               1     152.210E-03     152.022E-03     31.7778E-03     31.9923E-03
            3156               1     153.915E-03     153.924E-03     29.5466E-03     29.6998E-03
            3157               1     155.502E-03     155.900E-03     27.5542E-03     27.6281E-03
            3158               1     157.111E-03     157.554E-03     25.7536E-03     25.8232E-03
            3159               1     158.689E-03     159.330E-03     24.0815E-03     24.1061E-03
            3160               1     160.018E-03     160.660E-03     22.1925E-03     22.2285E-03
            3161               1     161.342E-03     162.128E-03     20.3863E-03     20.4113E-03
            3162               1     162.139E-03     162.929E-03     17.8910E-03     17.9187E-03
            3163               1     162.870E-03     163.816E-03     15.4308E-03     15.4674E-03
            3164               1     162.850E-03     163.790E-03     11.7034E-03     11.7241E-03
            3165               1     162.365E-03     163.427E-03     7.78068E-03     7.78750E-03
            3166               1     161.411E-03     162.313E-03     2.27660E-03     2.22306E-03
            3167               1     158.952E-03     159.648E-03    -4.52069E-03    -4.72277E-03
            3168               1     158.216E-03     157.995E-03    -11.5091E-03    -12.0104E-03
            3169               1     155.401E-03     153.731E-03    -24.3903E-03    -25.5454E-03
            3170               1     171.233E-03     164.523E-03    -27.8376E-03    -32.8362E-03
            3171               1     147.416E-03     149.132E-03     37.6049E-03     38.2936E-03
            3172               1     149.834E-03     150.971E-03     34.0527E-03     34.9795E-03
            3173               1     151.475E-03     152.699E-03     31.3377E-03     31.9837E-03
            3174               1     153.238E-03     154.406E-03     29.2664E-03     29.8100E-03
            3175               1     154.971E-03     156.143E-03     27.4899E-03     27.7597E-03
            3176               1     156.594E-03     157.844E-03     25.9704E-03     26.2459E-03
            3177               1     158.497E-03     159.765E-03     24.6339E-03     24.7145E-03
            3178               1     160.102E-03     161.428E-03     23.2045E-03     23.3396E-03
            3179               1     162.071E-03     163.444E-03     21.9010E-03     21.9497E-03
            3180               1     163.557E-03     164.958E-03     20.2065E-03     20.2853E-03
            3181               1     165.478E-03     166.940E-03     18.6020E-03     18.6785E-03
            3182               1     166.731E-03     168.201E-03     16.1828E-03     16.2430E-03
            3183               1     168.287E-03     169.784E-03     13.8679E-03     13.9350E-03
            3184               1     169.362E-03     170.839E-03     10.0212E-03     10.0212E-03
            3185               1     169.343E-03     170.722E-03     6.32109E-03     6.12922E-03
            3186               1     171.035E-03     172.274E-03     493.873E-06     108.504E-06
            3187               1     166.679E-03     167.998E-03    -5.14540E-03    -6.34685E-03
            3188               1     174.162E-03     175.417E-03    -12.0472E-03    -14.6037E-03
            3189               1     151.596E-03     162.712E-03    -8.60505E-03    -10.9550E-03
            3190               1     147.688E-03     150.889E-03     32.7384E-03     32.9187E-03
            3191               1     149.269E-03     152.822E-03     29.5373E-03     30.2505E-03
            3192               1     151.368E-03     154.220E-03     27.7067E-03     28.3121E-03
            3193               1     153.285E-03     155.705E-03     26.1553E-03     26.5520E-03
            3194               1     154.992E-03     157.370E-03     25.1056E-03     25.5317E-03
            3195               1     157.185E-03     159.263E-03     24.2321E-03     24.3604E-03
            3196               1     158.960E-03     161.102E-03     23.3461E-03     23.5811E-03
            3197               1     161.310E-03     163.345E-03     22.6123E-03     22.6641E-03
            3198               1     163.176E-03     165.258E-03     21.6688E-03     21.7976E-03
            3199               1     165.707E-03     167.770E-03     20.8451E-03     20.9175E-03
            3200               1     167.616E-03     169.698E-03     19.6055E-03     19.6858E-03
            3201               1     170.358E-03     172.421E-03     18.5520E-03     18.6512E-03
            3202               1     172.327E-03     174.424E-03     16.5099E-03     16.5502E-03
            3203               1     174.944E-03     176.955E-03     15.0551E-03     15.0562E-03
            3204               1     177.243E-03     179.453E-03     11.0526E-03     10.9325E-03
            3205               1     177.233E-03     179.522E-03     8.92528E-03     8.41056E-03
            3206               1     180.365E-03     183.249E-03     2.24265E-03     1.44320E-03
            3207               1     171.190E-03     177.746E-03     2.67108E-03     1.70584E-03
            3208               1     159.296E-03     162.516E-03    -5.70179E-03    -4.19076E-03
            3209               1     146.723E-03     152.116E-03     27.1395E-03     27.4936E-03
            3210               1     148.596E-03     152.980E-03     25.2064E-03     25.1604E-03
            3211               1     150.388E-03     154.251E-03     23.5644E-03     23.7951E-03
            3212               1     152.059E-03     155.784E-03     23.0401E-03     23.3780E-03
            3213               1     154.583E-03     157.624E-03     22.6810E-03     22.7217E-03
            3214               1     156.472E-03     159.578E-03     22.3688E-03     22.6327E-03
            3215               1     159.122E-03     161.904E-03     22.2407E-03     22.2457E-03
            3216               1     161.207E-03     164.057E-03     21.9583E-03     22.1221E-03
            3217               1     164.016E-03     166.748E-03     21.8162E-03     21.8553E-03
            3218               1     166.256E-03     169.018E-03     21.5055E-03     21.5995E-03
            3219               1     169.409E-03     172.113E-03     21.3474E-03     21.4348E-03
            3220               1     171.784E-03     174.513E-03     20.8230E-03     20.8696E-03
            3221               1     175.548E-03     178.193E-03     20.7516E-03     20.8553E-03
            3222               1     178.019E-03     180.835E-03     19.2763E-03     19.2781E-03
            3223               1     182.303E-03     185.085E-03     19.4160E-03     19.4326E-03
            3224               1     184.436E-03     187.934E-03     14.6203E-03     14.5684E-03
            3225               1     184.093E-03     188.680E-03     14.6567E-03     14.4563E-03
            3226               1     178.734E-03     183.165E-03     5.87132E-03     6.86702E-03
            3227               1     165.662E-03     172.383E-03     711.371E-06    -492.766E-06
            3228               1     146.510E-03     151.371E-03     22.0781E-03     21.0851E-03
            3229               1     146.995E-03     151.757E-03     19.8437E-03     19.7468E-03
            3230               1     147.943E-03     152.881E-03     19.8754E-03     19.8127E-03
            3231               1     150.760E-03     154.684E-03     20.0355E-03     19.7683E-03
            3232               1     152.633E-03     156.724E-03     20.2706E-03     20.4114E-03
            3233               1     155.602E-03     159.148E-03     20.7650E-03     20.6186E-03
            3234               1     157.835E-03     161.502E-03     21.0428E-03     21.1892E-03
            3235               1     160.817E-03     164.258E-03     21.5077E-03     21.4760E-03
            3236               1     163.237E-03     166.738E-03     21.8687E-03     21.9688E-03
            3237               1     166.420E-03     169.819E-03     22.3532E-03     22.3976E-03
            3238               1     168.984E-03     172.400E-03     22.8420E-03     22.8851E-03
            3239               1     172.743E-03     176.073E-03     23.5414E-03     23.6417E-03
            3240               1     175.375E-03     178.768E-03     23.9904E-03     23.9983E-03
            3241               1     180.513E-03     183.814E-03     25.2214E-03     25.3963E-03
            3242               1     182.706E-03     186.376E-03     24.4827E-03     24.5856E-03
            3243               1     190.324E-03     194.195E-03     26.3450E-03     26.7375E-03
            3244               1     189.044E-03     193.973E-03     18.9891E-03     19.8749E-03
            3245               1     186.889E-03     192.078E-03     15.8940E-03     15.7341E-03
            3246               1     177.656E-03     183.345E-03     2.87446E-03     5.03197E-03
            3247               1     144.387E-03     149.043E-03     14.6410E-03     14.5309E-03
            3248               1     143.160E-03     148.837E-03     15.5577E-03     15.2065E-03
            3249               1     146.115E-03     150.430E-03     16.4979E-03     15.7644E-03
            3250               1     147.657E-03     152.494E-03     17.2077E-03     17.1074E-03
            3251               1     150.945E-03     155.099E-03     18.3619E-03     17.9476E-03
            3252               1     153.268E-03     157.694E-03     19.0862E-03     19.1408E-03
            3253               1     156.430E-03     160.560E-03     20.1003E-03     19.9519E-03
            3254               1     158.978E-03     163.238E-03     20.9269E-03     21.0105E-03
            3255               1     162.117E-03     166.238E-03     21.8993E-03     21.8853E-03
            3256               1     164.771E-03     168.933E-03     22.9671E-03     23.0104E-03
            3257               1     168.155E-03     172.223E-03     24.1112E-03     24.1652E-03
            3258               1     170.878E-03     174.954E-03     25.5598E-03     25.5478E-03
            3259               1     175.150E-03     179.124E-03     27.1734E-03     27.3114E-03
            3260               1     177.761E-03     181.818E-03     28.9233E-03     28.9396E-03
            3261               1     184.767E-03     188.749E-03     31.3063E-03     31.6974E-03
            3262               1     186.142E-03     190.537E-03     31.8596E-03     32.3326E-03
            3263               1     200.753E-03     204.976E-03     33.9880E-03     34.9556E-03
            3264               1     197.063E-03     203.610E-03     19.9944E-03     21.8410E-03
            3265               1     189.856E-03     195.138E-03     10.7431E-03     10.2580E-03
            3266               1     138.163E-03     143.806E-03     9.56619E-03     9.73220E-03
            3267               1     141.163E-03     145.078E-03     12.2377E-03     11.1706E-03
            3268               1     142.007E-03     147.017E-03     13.3740E-03     13.1390E-03
            3269               1     145.469E-03     149.853E-03     15.2994E-03     14.6442E-03
            3270               1     147.807E-03     152.775E-03     16.3685E-03     16.3008E-03
            3271               1     151.138E-03     155.853E-03     17.8697E-03     17.6081E-03
            3272               1     153.812E-03     158.793E-03     19.0167E-03     19.0545E-03
            3273               1     156.958E-03     161.795E-03     20.3602E-03     20.2924E-03
            3274               1     159.677E-03     164.610E-03     21.7287E-03     21.7693E-03
            3275               1     162.754E-03     167.584E-03     23.1553E-03     23.1649E-03
            3276               1     165.477E-03     170.327E-03     24.9648E-03     24.9578E-03
            3277               1     168.790E-03     173.542E-03     26.7209E-03     26.7808E-03
            3278               1     171.554E-03     176.301E-03     29.2579E-03     29.2123E-03
            3279               1     176.037E-03     180.654E-03     31.5444E-03     31.7395E-03
            3280               1     178.951E-03     183.576E-03     35.1041E-03     35.1838E-03
            3281               1     187.909E-03     192.242E-03     37.6987E-03     38.2960E-03
            3282               1     191.291E-03     195.920E-03     41.6525E-03     42.3818E-03
            3283               1     221.910E-03     225.564E-03     43.1645E-03     45.0682E-03
            3284               1     212.380E-03     220.687E-03     14.9173E-03     17.7482E-03
            3285               1     136.326E-03     138.620E-03     7.62554E-03     6.86445E-03
            3286               1     136.449E-03     140.584E-03     9.02643E-03     9.04801E-03
            3287               1     139.601E-03     143.584E-03     11.8125E-03     11.3417E-03
            3288               1     141.865E-03     147.026E-03     13.2010E-03     13.1369E-03
            3289               1     145.230E-03     150.359E-03     15.0934E-03     14.8985E-03
            3290               1     148.037E-03     153.679E-03     16.4960E-03     16.4904E-03
            3291               1     151.239E-03     156.774E-03     18.0830E-03     18.0236E-03
            3292               1     154.055E-03     159.770E-03     19.6107E-03     19.6265E-03
            3293               1     156.997E-03     162.589E-03     21.1882E-03     21.1805E-03
            3294               1     159.688E-03     165.340E-03     23.0483E-03     23.0521E-03
            3295               1     162.441E-03     167.983E-03     24.8615E-03     24.8748E-03
            3296               1     165.089E-03     170.671E-03     27.3649E-03     27.3403E-03
            3297               1     167.945E-03     173.401E-03     29.5744E-03     29.6258E-03
            3298               1     171.000E-03     176.468E-03     33.2273E-03     33.1831E-03
            3299               1     174.928E-03     180.146E-03     35.6319E-03     35.8170E-03
            3300               1     180.287E-03     185.316E-03     41.6472E-03     41.6414E-03
            3301               1     189.380E-03     193.793E-03     43.0198E-03     43.6421E-03
            3302               1     205.698E-03     209.169E-03     56.4636E-03     56.6821E-03
            3303               1     263.799E-03     264.567E-03     48.0519E-03     51.4416E-03
            3304               1     329.238E-03     303.349E-03     65.6743E-03     72.4301E-03
            3305               1     263.973E-03     242.397E-03     66.3046E-03     66.5155E-03
            3306               1     237.939E-03     215.362E-03     46.6068E-03     46.7563E-03
            3307               1     210.767E-03     188.410E-03     36.6417E-03     36.7813E-03
            3308               1     187.219E-03     164.547E-03     28.0745E-03     28.1594E-03
            3309               1     162.192E-03     140.052E-03     21.2229E-03     21.4974E-03
            3310               1     137.468E-03     115.827E-03     17.0276E-03     17.3612E-03
            3311               1     112.615E-03     91.7970E-03     13.6910E-03     13.9278E-03
            3312               1     87.7336E-03     67.7738E-03     11.5917E-03     11.9461E-03
            3313               1     63.1844E-03     44.4082E-03     10.2578E-03     10.4779E-03
            3314               1     39.0881E-03     23.4352E-03     9.40542E-03     9.76547E-03
            3315               1     19.4830E-03     18.4886E-03     9.39975E-03     9.59819E-03
            3316               1     21.9208E-03     36.5342E-03     9.44342E-03     9.84410E-03
            3317               1     43.3024E-03     59.5667E-03     10.6735E-03     10.8221E-03
            3318               1     67.4125E-03     83.0254E-03     11.4653E-03     11.9994E-03
            3319               1     91.6606E-03     107.230E-03     14.2294E-03     14.2233E-03
            3320               1     117.304E-03     131.088E-03     15.3571E-03     16.2852E-03
            3321               1     142.304E-03     156.729E-03     20.5131E-03     19.8031E-03
            3322               1     173.203E-03     185.255E-03     20.2151E-03     21.7969E-03
            3323               1     274.606E-03     277.897E-03     37.8612E-03     35.6602E-03
            3324               1     292.659E-03     279.010E-03     55.8287E-03     57.3929E-03
            3325               1     244.405E-03     231.093E-03     44.4429E-03     44.6947E-03
            3326               1     223.993E-03     209.336E-03     38.0400E-03     37.8756E-03
            3327               1     193.364E-03     179.332E-03     29.6825E-03     30.4373E-03
            3328               1     166.857E-03     153.624E-03     25.9189E-03     26.6387E-03
            3329               1     140.786E-03     127.745E-03     22.4993E-03     23.1251E-03
            3330               1     114.838E-03     102.625E-03     20.3106E-03     21.2327E-03
            3331               1     90.1172E-03     78.4786E-03     18.9354E-03     19.5015E-03
            3332               1     65.7842E-03     55.8404E-03     17.7966E-03     18.7344E-03
            3333               1     44.6537E-03     37.3796E-03     17.5329E-03     18.0573E-03
            3334               1     30.4160E-03     31.7142E-03     17.1008E-03     18.0939E-03
            3335               1     35.8372E-03     43.3736E-03     17.7742E-03     18.2163E-03
            3336               1     54.0478E-03     64.1754E-03     17.9095E-03     19.0608E-03
            3337               1     76.9600E-03     86.9403E-03     19.7391E-03     20.0281E-03
            3338               1     101.809E-03     111.691E-03     20.4445E-03     21.9514E-03
            3339               1     125.983E-03     136.026E-03     23.9038E-03     23.8006E-03
            3340               1     155.089E-03     163.557E-03     24.9829E-03     26.9621E-03
            3341               1     179.455E-03     189.654E-03     29.6225E-03     28.0569E-03
            3342               1     277.780E-03     265.445E-03     39.5954E-03     34.2841E-03
            3343               1     268.927E-03     268.740E-03     32.4432E-03     29.8062E-03
            3344               1     260.982E-03     252.520E-03     40.9427E-03     40.2770E-03
            3345               1     223.369E-03     216.922E-03     29.6562E-03     30.7391E-03
            3346               1     195.271E-03     190.326E-03     29.8053E-03     30.7795E-03
            3347               1     167.859E-03     162.406E-03     27.2516E-03     28.0606E-03
            3348               1     141.215E-03     136.717E-03     26.3312E-03     27.5041E-03
            3349               1     116.456E-03     111.832E-03     25.7000E-03     26.4436E-03
            3350               1     91.9509E-03     88.2764E-03     24.9626E-03     26.1676E-03
            3351               1     70.2140E-03     66.9339E-03     24.8971E-03     25.6136E-03
            3352               1     51.4573E-03     50.6006E-03     24.4383E-03     25.6827E-03
            3353               1     43.0662E-03     44.0291E-03     24.7683E-03     25.4086E-03
            3354               1     48.0752E-03     52.5082E-03     24.5161E-03     25.8776E-03
            3355               1     64.9578E-03     69.1868E-03     25.3781E-03     25.8826E-03
            3356               1     86.6392E-03     91.7667E-03     25.4298E-03     26.9866E-03
            3357               1     109.721E-03     114.655E-03     27.0177E-03     27.3396E-03
            3358               1     136.653E-03     140.950E-03     27.6905E-03     29.3885E-03
            3359               1     159.617E-03     165.703E-03     28.8611E-03     29.2172E-03
            3360               1     194.391E-03     195.528E-03     29.9201E-03     30.6164E-03
            3361               1     269.099E-03     272.831E-03     34.2401E-03     28.7597E-03
            3362               1     276.691E-03     266.477E-03     34.0517E-03     29.8451E-03
            3363               1     250.210E-03     251.821E-03     17.6161E-03     19.0829E-03
            3364               1     216.348E-03     219.963E-03     26.1521E-03     27.6911E-03
            3365               1     190.405E-03     192.825E-03     26.3415E-03     27.0847E-03
            3366               1     163.673E-03     167.224E-03     28.5478E-03     29.8590E-03
            3367               1     139.789E-03     142.426E-03     29.7564E-03     30.4423E-03
            3368               1     115.916E-03     119.044E-03     30.3580E-03     31.5579E-03
            3369               1     94.4951E-03     97.0134E-03     31.1727E-03     31.8943E-03
            3370               1     74.7355E-03     77.6796E-03     31.2763E-03     32.4827E-03
            3371               1     60.7980E-03     62.7043E-03     31.7421E-03     32.4292E-03
            3372               1     54.6416E-03     56.8880E-03     31.5459E-03     32.8281E-03
            3373               1     60.7350E-03     61.0148E-03     31.8388E-03     32.4158E-03
            3374               1     75.1624E-03     75.8936E-03     31.4168E-03     32.8075E-03
            3375               1     94.4570E-03     94.1221E-03     31.5745E-03     32.0376E-03
            3376               1     117.641E-03     117.359E-03     31.1619E-03     32.5118E-03
            3377               1     139.497E-03     140.081E-03     30.3475E-03     31.0028E-03
            3378               1     166.979E-03     165.401E-03     29.9394E-03     30.6087E-03
            3379               1     187.684E-03     189.085E-03     21.8562E-03     25.3262E-03
            3380               1     301.817E-03     279.669E-03     36.0664E-03     34.1468E-03
            3381               1     272.525E-03     281.902E-03     1.68385E-03     6.94316E-03
            3382               1     221.290E-03     234.307E-03     12.3444E-03     14.7766E-03
            3383               1     204.413E-03     216.056E-03     19.8792E-03     20.3246E-03
            3384               1     178.309E-03     190.575E-03     26.3022E-03     27.6992E-03
            3385               1     157.586E-03     168.111E-03     30.8304E-03     31.2174E-03
            3386               1     135.713E-03     146.279E-03     33.7192E-03     34.7020E-03
            3387               1     115.900E-03     125.082E-03     36.1369E-03     36.6545E-03
            3388               1     97.0649E-03     105.610E-03     37.4386E-03     38.3441E-03
            3389               1     81.8044E-03     88.3024E-03     38.5772E-03     39.1220E-03
            3390               1     70.9084E-03     75.6568E-03     38.9460E-03     39.8863E-03
            3391               1     68.0302E-03     69.0222E-03     39.2347E-03     39.7229E-03
            3392               1     73.1949E-03     72.0949E-03     38.8825E-03     39.8951E-03
            3393               1     85.3879E-03     81.3484E-03     38.3714E-03     38.7528E-03
            3394               1     102.468E-03     98.0633E-03     37.2914E-03     38.2960E-03
            3395               1     120.907E-03     115.753E-03     35.3510E-03     35.7908E-03
            3396               1     142.822E-03     137.017E-03     33.3184E-03     33.8996E-03
            3397               1     161.487E-03     157.167E-03     27.2847E-03     28.6615E-03
            3398               1     179.033E-03     174.751E-03     21.4966E-03     21.4410E-03
            3399               1     297.253E-03     342.284E-03    -14.4565E-03    -2.77155E-03
            3400               1     219.925E-03     248.761E-03    -8.84756E-03    -4.93463E-03
            3401               1     205.187E-03     227.806E-03     12.8230E-03     13.1011E-03
            3402               1     182.834E-03     204.654E-03     20.6686E-03     21.6189E-03
            3403               1     167.640E-03     186.847E-03     29.9260E-03     29.9272E-03
            3404               1     149.742E-03     168.370E-03     35.5807E-03     36.0559E-03
            3405               1     133.230E-03     149.721E-03     40.0826E-03     40.2445E-03
            3406               1     116.951E-03     131.924E-03     43.0851E-03     43.4363E-03
            3407               1     102.633E-03     114.963E-03     45.2562E-03     45.4712E-03
            3408               1     91.0062E-03     100.374E-03     46.5930E-03     46.9339E-03
            3409               1     83.8740E-03     89.0682E-03     47.3189E-03     47.5361E-03
            3410               1     82.6240E-03     83.4363E-03     47.5521E-03     47.9078E-03
            3411               1     87.1754E-03     83.4177E-03     47.0533E-03     47.2471E-03
            3412               1     97.3310E-03     90.7867E-03     46.2665E-03     46.6232E-03
            3413               1     110.193E-03     101.137E-03     44.1109E-03     44.2948E-03
            3414               1     126.017E-03     116.356E-03     41.7872E-03     42.0303E-03
            3415               1     140.854E-03     130.427E-03     36.3884E-03     36.7990E-03
            3416               1     155.757E-03     145.344E-03     30.6451E-03     30.5779E-03
            3417               1     166.858E-03     156.183E-03     19.9920E-03     20.5025E-03
            3418               1     271.208E-03     270.364E-03    -3.10013E-03    -3.15860E-03
            3419               1     249.277E-03     248.434E-03    -3.10013E-03    -3.15860E-03
            3420               1     227.348E-03     226.504E-03    -3.10014E-03    -3.15860E-03
            3421               1     205.419E-03     204.576E-03    -3.10013E-03    -3.15860E-03
            3422               1     183.492E-03     182.650E-03    -3.10014E-03    -3.15860E-03
            3423               1     161.568E-03     160.726E-03    -3.10013E-03    -3.15860E-03
            3424               1     139.647E-03     138.805E-03    -3.10014E-03    -3.15860E-03
            3425               1     117.731E-03     116.890E-03    -3.10014E-03    -3.15860E-03
            3426               1     95.8233E-03     94.9845E-03    -3.10013E-03    -3.15860E-03
            3427               1     73.9328E-03     73.0966E-03    -3.10014E-03    -3.15860E-03
            3428               1     52.0798E-03     51.2491E-03    -3.10013E-03    -3.15860E-03
            3429               1     30.3458E-03     29.5322E-03    -3.10014E-03    -3.15860E-03
            3430               1     9.57836E-03     8.95201E-03    -3.10013E-03    -3.15860E-03
            3431               1     14.9977E-03     15.8252E-03    -3.10014E-03    -3.15860E-03
            3432               1     36.3377E-03     37.1893E-03    -3.10013E-03    -3.15860E-03
            3433               1     58.1226E-03     58.9743E-03    -3.10013E-03    -3.15860E-03
            3434               1     79.9897E-03     80.8406E-03    -3.10014E-03    -3.15860E-03
            3435               1     101.886E-03     102.736E-03    -3.10014E-03    -3.15860E-03
            3436               1     123.796E-03     124.646E-03    -3.10013E-03    -3.15859E-03
            3437               1     53.1589E-03     57.5802E-03     29.3602E-03     30.5312E-03
            3438               1     43.7380E-03     45.1720E-03     25.1663E-03     26.0228E-03
            3439               1     59.9583E-03     58.1799E-03     34.1330E-03     33.2678E-03
            3440               1     42.6959E-03     43.7913E-03     24.6273E-03     25.2751E-03
            3441               1     60.0092E-03     58.5234E-03     34.5966E-03     33.7553E-03
            3442               1     48.0025E-03     47.0180E-03     27.5393E-03     26.8845E-03
            3443               1     60.6210E-03     59.9636E-03     34.5762E-03     34.0167E-03
            3444               1     49.4450E-03     48.1466E-03     27.6315E-03     26.9141E-03
            3445               1     61.9229E-03     60.7205E-03     33.8828E-03     33.3631E-03
            3446               1     49.4196E-03     49.0788E-03     26.8216E-03     26.3012E-03
            3447               1     61.2489E-03     61.7039E-03     32.1404E-03     31.6613E-03
            3448               1     50.1309E-03     48.9060E-03     25.5168E-03     24.7891E-03
            3449               1     64.1916E-03     61.6484E-03     29.9200E-03     29.3506E-03
            3450               1     45.1722E-03     47.4644E-03     21.0998E-03     21.7993E-03
            3451               1     58.7793E-03     66.6253E-03     23.8448E-03     25.4568E-03
            3452               1     42.5272E-03     47.1726E-03     20.5564E-03     21.5427E-03
            3453               1     65.4268E-03     65.8031E-03     37.1600E-03     37.8634E-03
            3454               1     63.6756E-03     62.5628E-03     32.6606E-03     33.3564E-03
            3455               1     72.8724E-03     71.6634E-03     40.8418E-03     39.6434E-03
            3456               1     61.0724E-03     61.7075E-03     31.1398E-03     31.8296E-03
            3457               1     74.6458E-03     72.6967E-03     39.7055E-03     38.4737E-03
            3458               1     65.8931E-03     65.9806E-03     33.0112E-03     32.4432E-03
            3459               1     75.5616E-03     75.4761E-03     38.5169E-03     37.9516E-03
            3460               1     68.3709E-03     67.7600E-03     32.1167E-03     31.3551E-03
            3461               1     77.5944E-03     76.8532E-03     36.8589E-03     36.2838E-03
            3462               1     69.4001E-03     70.0440E-03     30.8343E-03     30.4153E-03
            3463               1     78.0323E-03     79.0754E-03     34.9036E-03     34.7329E-03
            3464               1     71.6039E-03     71.3458E-03     29.2515E-03     28.6034E-03
            3465               1     81.4886E-03     81.0070E-03     32.9213E-03     32.8216E-03
            3466               1     70.9556E-03     72.7995E-03     26.2899E-03     26.3468E-03
            3467               1     80.5636E-03     83.8878E-03     29.2009E-03     29.3246E-03
            3468               1     72.6666E-03     72.7047E-03     23.6543E-03     23.1737E-03
            3469               1     85.4017E-03     82.3946E-03     25.1056E-03     24.9704E-03
            3470               1     68.8517E-03     71.9188E-03     17.5086E-03     18.4573E-03
            3471               1     80.7397E-03     90.1760E-03     17.5655E-03     19.6913E-03
            3472               1     62.5725E-03     68.2645E-03     15.8308E-03     17.0399E-03
            3473               1     89.6683E-03     87.3487E-03     45.5759E-03     45.7534E-03
            3474               1     91.8569E-03     89.1875E-03     40.2896E-03     40.7043E-03
            3475               1     96.5338E-03     95.2957E-03     47.6341E-03     45.9587E-03
            3476               1     89.3412E-03     90.1390E-03     37.8675E-03     38.5712E-03
            3477               1     98.5342E-03     97.4954E-03     44.7328E-03     43.1402E-03
            3478               1     93.3012E-03     94.0930E-03     38.1958E-03     37.4091E-03
            3479               1     99.6485E-03     99.4078E-03     41.8780E-03     40.9579E-03
            3480               1     95.4421E-03     96.3147E-03     36.0750E-03     35.2942E-03
            3481               1     100.848E-03     101.584E-03     39.1900E-03     38.6203E-03
            3482               1     97.6429E-03     98.4540E-03     33.9615E-03     33.2249E-03
            3483               1     103.312E-03     103.720E-03     36.5661E-03     36.3104E-03
            3484               1     98.2918E-03     100.237E-03     30.9609E-03     30.7070E-03
            3485               1     103.934E-03     106.314E-03     33.3512E-03     33.3961E-03
            3486               1     100.589E-03     101.675E-03     28.3790E-03     27.9945E-03
            3487               1     107.942E-03     108.092E-03     30.1768E-03     30.4703E-03
            3488               1     99.8407E-03     103.254E-03     23.8490E-03     24.3197E-03
            3489               1     106.784E-03     112.230E-03     24.7196E-03     25.3726E-03
            3490               1     101.485E-03     102.740E-03     20.1015E-03     19.8642E-03
            3491               1     112.070E-03     108.848E-03     18.7756E-03     19.1275E-03
            3492               1     98.3773E-03     101.858E-03     12.4479E-03     13.5101E-03
            3493               1     107.502E-03     117.206E-03     9.93223E-03     12.5360E-03
            3494               1     90.1035E-03     95.4347E-03     9.72942E-03     11.1046E-03
            3495               1     118.152E-03     114.772E-03     53.1108E-03     52.7574E-03
            3496               1     121.837E-03     118.479E-03     47.0825E-03     47.2480E-03
            3497               1     124.581E-03     123.199E-03     53.5138E-03     51.4615E-03
            3498               1     119.923E-03     121.029E-03     43.5647E-03     44.1731E-03
            3499               1     125.929E-03     126.125E-03     48.6247E-03     46.5887E-03
            3500               1     122.975E-03     124.773E-03     42.1451E-03     41.2949E-03
            3501               1     126.802E-03     126.875E-03     43.9388E-03     42.7959E-03
            3502               1     124.855E-03     126.905E-03     38.7178E-03     37.6945E-03
            3503               1     127.241E-03     129.025E-03     39.9625E-03     39.2841E-03
            3504               1     126.823E-03     128.606E-03     35.1212E-03     34.3669E-03
            3505               1     129.779E-03     130.701E-03     36.0785E-03     35.8549E-03
            3506               1     127.007E-03     130.176E-03     30.9341E-03     30.7021E-03
            3507               1     129.747E-03     133.255E-03     31.6335E-03     31.8291E-03
            3508               1     129.183E-03     131.263E-03     27.1490E-03     26.9007E-03
            3509               1     133.986E-03     134.567E-03     27.2370E-03     27.8202E-03
            3510               1     127.997E-03     132.684E-03     21.2978E-03     22.0417E-03
            3511               1     132.225E-03     139.201E-03     20.1186E-03     21.2707E-03
            3512               1     129.299E-03     131.593E-03     16.3766E-03     16.3264E-03
            3513               1     137.490E-03     134.254E-03     12.4764E-03     13.3280E-03
            3514               1     126.343E-03     130.246E-03     7.49651E-03     8.58688E-03
            3515               1     132.654E-03     142.066E-03     2.54551E-03     5.55882E-03
            3516               1     117.098E-03     121.743E-03     3.69801E-03     5.16805E-03
            3517               1     140.372E-03     136.849E-03     54.2673E-03     53.4232E-03
            3518               1     145.462E-03     142.252E-03     47.4243E-03     47.5270E-03
            3519               1     146.468E-03     145.794E-03     52.4286E-03     50.4303E-03
            3520               1     144.531E-03     146.064E-03     41.9791E-03     42.4066E-03
            3521               1     148.202E-03     149.860E-03     44.6446E-03     42.3419E-03
            3522               1     145.336E-03     149.664E-03     37.5653E-03     37.4191E-03
            3523               1     147.259E-03     150.115E-03     36.5850E-03     35.9773E-03
            3524               1     147.642E-03     150.909E-03     31.9702E-03     30.6246E-03
            3525               1     149.585E-03     150.998E-03     29.5819E-03     29.3740E-03
            3526               1     146.130E-03     151.877E-03     24.0040E-03     24.4994E-03
            3527               1     146.846E-03     154.349E-03     20.1610E-03     21.4284E-03
            3528               1     146.550E-03     150.144E-03     17.3759E-03     16.6289E-03
            3529               1     150.477E-03     148.063E-03     10.5700E-03     11.5858E-03
            3530               1     143.457E-03     148.115E-03     7.32127E-03     8.12339E-03
            3531               1     145.190E-03     153.960E-03    -104.823E-06     3.12687E-03
            3532               1     134.388E-03     138.571E-03     1.86943E-03     3.04598E-03
            3533               1     205.015E-03     221.677E-03     32.4368E-03     27.8364E-03
            3534               1     283.685E-03     310.949E-03     22.9835E-03     17.3334E-03
            3535               1     231.823E-03     234.564E-03     31.6682E-03     30.3588E-03
            3536               1     275.564E-03     257.787E-03     5.51361E-03     8.40118E-03
            3537               1     221.701E-03     221.845E-03     14.7563E-03     20.2248E-03
            3538               1     237.899E-03     247.934E-03    -2.71227E-03    -1.31760E-03
            3539               1     203.138E-03     205.996E-03     12.6440E-03     13.5656E-03
            3540               1     220.223E-03     216.798E-03    -9.87711E-03    -7.16591E-03
            3541               1     189.676E-03     186.541E-03     8.46870E-03     10.8229E-03
            3542               1     188.699E-03     186.114E-03    -11.1037E-03    -8.70564E-03
            3543               1     172.023E-03     162.118E-03     7.79694E-03     7.72156E-03
            3544               1     162.944E-03     155.132E-03    -10.3344E-03    -7.84543E-03
            3545               1     145.940E-03     146.790E-03    -3.10013E-03    -3.15860E-03
            3546               1     168.316E-03     169.165E-03    -3.10013E-03    -3.15860E-03
            3547               1     104.633E-03     126.480E-03     22.4287E-03     19.8511E-03
            3548               1     136.883E-03     107.722E-03     25.0828E-03     24.9232E-03
            3549               1     107.273E-03     124.247E-03     22.4028E-03     24.7299E-03
            3550               1     109.950E-03     105.896E-03     24.1964E-03     23.5620E-03
            3551               1     107.452E-03     103.130E-03     24.7891E-03     25.1681E-03
            3552               1     97.8877E-03     107.293E-03     26.2678E-03     24.2484E-03
            3553               1     107.270E-03     90.4698E-03     24.3276E-03     24.0388E-03
            3554               1     86.6755E-03     95.9548E-03     26.1385E-03     27.8287E-03
            3555               1     93.9661E-03     112.107E-03     24.6214E-03     22.3421E-03
            3556               1     120.604E-03     97.8434E-03     27.0554E-03     27.2869E-03
            3557               1     95.6451E-03     110.726E-03     23.9971E-03     27.1214E-03
            3558               1     95.7054E-03     95.6340E-03     25.2930E-03     26.3245E-03
            3559               1     93.7306E-03     92.8888E-03     25.4576E-03     26.6593E-03
            3560               1     86.5255E-03     89.8535E-03     25.7937E-03     25.8724E-03
            3561               1     86.2191E-03     83.8053E-03     26.4251E-03     25.1536E-03
            3562               1     82.1515E-03     80.3982E-03     26.5512E-03     25.2885E-03
            3563               1     77.9461E-03     80.9448E-03     27.5815E-03     24.9397E-03
            3564               1     80.5551E-03     70.9510E-03     25.6763E-03     24.6414E-03
            3565               1     69.0541E-03     73.7514E-03     26.9471E-03     27.8275E-03
            3566               1     76.7564E-03     89.4669E-03     26.4313E-03     24.5599E-03
            3567               1     95.3749E-03     79.3151E-03     28.3526E-03     28.3616E-03
            3568               1     76.5618E-03     87.5754E-03     25.9872E-03     28.2751E-03
            3569               1     75.9895E-03     76.1394E-03     26.9539E-03     27.6315E-03
            3570               1     73.9952E-03     73.7331E-03     27.0785E-03     27.8965E-03
            3571               1     68.6907E-03     70.6628E-03     27.2648E-03     27.3322E-03
            3572               1     67.7446E-03     65.9650E-03     27.7564E-03     26.8348E-03
            3573               1     64.7675E-03     63.3030E-03     27.8461E-03     26.8985E-03
            3574               1     62.1225E-03     61.9761E-03     28.5086E-03     26.7318E-03
            3575               1     61.0927E-03     56.9656E-03     27.3952E-03     26.5028E-03
            3576               1     56.7110E-03     57.6461E-03     28.0566E-03     28.4163E-03
            3577               1     62.7252E-03     69.8683E-03     28.2022E-03     26.8378E-03
            3578               1     73.0570E-03     63.7994E-03     29.4717E-03     29.3143E-03
            3579               1     61.2568E-03     67.4573E-03     28.0163E-03     29.3110E-03
            3580               1     60.2899E-03     60.2544E-03     28.5880E-03     28.7803E-03
            3581               1     58.9322E-03     58.5241E-03     28.8233E-03     29.0176E-03
            3582               1     56.1044E-03     56.2713E-03     28.9638E-03     28.6393E-03
            3583               1     55.2898E-03     54.0711E-03     29.1957E-03     28.6928E-03
            3584               1     53.8439E-03     52.7167E-03     29.4845E-03     28.6374E-03
            3585               1     52.3214E-03     51.3793E-03     29.1710E-03     28.5837E-03
            3586               1     51.6808E-03     50.9519E-03     29.2284E-03     29.0922E-03
            3587               1     55.0087E-03     57.3619E-03     29.8817E-03     29.0579E-03
            3588               1     58.6119E-03     55.0714E-03     30.6686E-03     30.3204E-03
            3589               1     53.8887E-03     55.5410E-03     29.9373E-03     30.3345E-03
            3590               1     53.5173E-03     53.0925E-03     30.3308E-03     30.0633E-03
            3591               1     53.1614E-03     52.7401E-03     30.3918E-03     30.2200E-03
            3592               1     52.5666E-03     52.4669E-03     30.3285E-03     30.2867E-03
            3593               1     53.2009E-03     52.3768E-03     30.5971E-03     30.2303E-03
            3594               1     52.5267E-03     52.5932E-03     30.2535E-03     29.8623E-03
            3595               1     67.8773E-03     74.2949E-03     28.7257E-03     25.1166E-03
            3596               1     82.7950E-03     71.0110E-03     31.3957E-03     30.8367E-03
            3597               1     65.5480E-03     74.0677E-03     28.4711E-03     30.7609E-03
            3598               1     66.7834E-03     64.1806E-03     29.0035E-03     28.4038E-03
            3599               1     64.0260E-03     62.9649E-03     28.3977E-03     28.8284E-03
            3600               1     61.0136E-03     61.6051E-03     28.5556E-03     27.0534E-03
            3601               1     62.8552E-03     57.4839E-03     27.2104E-03     26.6350E-03
            3602               1     58.0277E-03     63.9597E-03     28.1859E-03     30.8059E-03
            3603               1     64.4880E-03     67.3785E-03     29.9957E-03     26.3514E-03
            3604               1     76.6935E-03     67.4937E-03     32.7169E-03     31.3001E-03
            3605               1     63.3543E-03     69.8961E-03     30.0794E-03     31.4266E-03
            3606               1     65.2482E-03     62.7693E-03     31.0121E-03     29.5077E-03
            3607               1     62.4896E-03     62.8763E-03     30.4237E-03     30.2409E-03
            3608               1     59.4358E-03     60.9315E-03     29.4879E-03     29.8446E-03
            3609               1     57.4671E-03     58.9364E-03     28.9267E-03     29.5209E-03
            3610               1     55.8253E-03     57.1800E-03     28.3965E-03     29.4374E-03
            3611               1     55.1801E-03     55.2700E-03     29.0276E-03     28.1522E-03
            3612               1     54.8552E-03     53.5057E-03     27.9814E-03     28.0308E-03
            3613               1     53.3755E-03     57.4337E-03     28.6648E-03     30.7029E-03
            3614               1     60.2444E-03     60.5249E-03     31.1070E-03     28.2498E-03
            3615               1     68.4703E-03     62.4289E-03     33.3953E-03     32.1511E-03
            3616               1     59.4664E-03     63.5999E-03     31.2572E-03     32.2809E-03
            3617               1     60.7452E-03     58.7554E-03     31.9647E-03     30.8041E-03
            3618               1     58.8692E-03     59.1084E-03     31.5391E-03     31.4730E-03
            3619               1     56.7068E-03     57.7187E-03     30.8062E-03     31.1747E-03
            3620               1     55.4541E-03     56.5013E-03     30.4849E-03     30.9668E-03
            3621               1     54.2962E-03     55.2757E-03     30.1108E-03     30.7555E-03
            3622               1     54.2909E-03     53.7396E-03     30.5167E-03     29.9725E-03
            3623               1     53.5302E-03     52.9857E-03     30.0464E-03     29.8374E-03
            3624               1     53.1822E-03     55.1470E-03     30.1830E-03     31.3191E-03
            3625               1     58.5164E-03     57.6643E-03     32.3346E-03     30.4233E-03
            3626               1     63.6184E-03     59.9627E-03     34.1940E-03     33.1611E-03
            3627               1     57.9793E-03     60.4536E-03     32.4570E-03     33.3010E-03
            3628               1     58.8172E-03     57.5624E-03     32.9919E-03     32.3323E-03
            3629               1     57.5241E-03     57.9634E-03     32.6050E-03     32.8056E-03
            3630               1     56.2295E-03     57.1052E-03     32.0800E-03     32.5770E-03
            3631               1     56.0823E-03     56.1539E-03     32.1707E-03     32.2083E-03
            3632               1     55.9171E-03     55.6848E-03     32.1614E-03     32.0519E-03
            3633               1     56.1301E-03     55.1185E-03     32.3792E-03     31.7582E-03
            3634               1     55.3575E-03     55.8625E-03     31.9354E-03     32.2486E-03
            3635               1     59.0229E-03     58.2338E-03     33.7230E-03     32.7532E-03
            3636               1     61.7366E-03     59.8436E-03     34.9716E-03     34.2503E-03
            3637               1     58.7660E-03     60.0995E-03     33.7847E-03     34.4213E-03
            3638               1     59.1124E-03     58.7278E-03     34.0363E-03     33.8324E-03
            3639               1     58.8699E-03     58.7058E-03     33.9742E-03     33.8788E-03
            3640               1     58.5264E-03     58.9716E-03     33.7900E-03     34.0408E-03
            3641               1     59.9945E-03     58.6171E-03     34.5476E-03     33.8233E-03
            3642               1     58.3876E-03     58.0369E-03     33.6707E-03     33.3232E-03
            3643               1     57.4889E-03     47.8153E-03     33.0363E-03     27.3417E-03
            3644               1     65.5376E-03     57.0561E-03     37.3825E-03     32.6025E-03
            3645               1     57.3567E-03     55.5919E-03     32.3595E-03     31.5100E-03
            3646               1     57.5075E-03     53.8477E-03     32.1203E-03     30.3750E-03
            3647               1     53.9441E-03     56.8263E-03     29.9710E-03     31.9759E-03
            3648               1     53.1810E-03     54.9380E-03     29.3354E-03     30.5625E-03
            3649               1     46.6029E-03     52.0961E-03     25.2316E-03     29.2321E-03
            3650               1     51.2019E-03     58.9909E-03     28.9030E-03     32.9323E-03
            3651               1     57.0025E-03     48.5577E-03     32.4750E-03     27.0778E-03
            3652               1     65.2233E-03     55.9044E-03     36.6896E-03     31.6409E-03
            3653               1     57.5813E-03     54.1666E-03     32.5482E-03     30.5278E-03
            3654               1     58.8249E-03     52.6016E-03     33.2060E-03     29.7830E-03
            3655               1     57.0693E-03     54.4494E-03     32.2936E-03     30.9708E-03
            3656               1     56.1818E-03     55.4064E-03     31.6288E-03     31.4327E-03
            3657               1     54.6934E-03     56.0921E-03     30.6233E-03     31.7972E-03
            3658               1     53.3327E-03     58.4559E-03     29.6154E-03     32.9090E-03
            3659               1     53.0357E-03     57.5211E-03     29.2513E-03     31.9330E-03
            3660               1     49.4447E-03     54.6949E-03     26.5508E-03     30.6128E-03
            3661               1     52.8805E-03     60.2379E-03     29.6684E-03     33.3354E-03
            3662               1     58.1084E-03     51.7182E-03     33.1354E-03     29.0189E-03
            3663               1     64.3962E-03     57.3140E-03     36.2891E-03     32.5292E-03
            3664               1     58.2743E-03     56.1197E-03     33.1065E-03     31.7750E-03
            3665               1     59.4481E-03     55.0269E-03     33.7393E-03     31.3116E-03
            3666               1     58.1977E-03     56.3370E-03     33.1084E-03     32.1500E-03
            3667               1     57.6413E-03     57.0382E-03     32.7078E-03     32.5067E-03
            3668               1     56.4576E-03     57.4597E-03     31.9290E-03     32.7348E-03
            3669               1     55.4028E-03     59.0652E-03     31.2179E-03     33.5140E-03
            3670               1     54.8098E-03     58.2489E-03     30.7650E-03     32.7742E-03
            3671               1     52.4735E-03     56.1554E-03     29.1469E-03     31.8130E-03
            3672               1     54.8502E-03     59.3665E-03     31.1283E-03     33.3963E-03
            3673               1     59.5851E-03     55.0557E-03     34.2074E-03     31.4135E-03
            3674               1     63.3557E-03     59.0615E-03     36.1441E-03     33.8461E-03
            3675               1     59.4381E-03     58.3892E-03     34.0900E-03     33.4458E-03
            3676               1     60.0520E-03     58.1301E-03     34.4076E-03     33.3714E-03
            3677               1     59.5866E-03     58.8982E-03     34.1823E-03     33.8140E-03
            3678               1     58.9154E-03     59.1180E-03     33.7094E-03     33.9364E-03
            3679               1     57.6755E-03     59.6861E-03     33.0136E-03     34.2064E-03
            3680               1     57.4048E-03     58.9892E-03     32.8035E-03     33.7364E-03
            3681               1     55.8546E-03     57.9854E-03     31.9100E-03     33.2625E-03
            3682               1     57.3041E-03     58.6428E-03     32.9086E-03     33.5892E-03
            3683               1     61.5206E-03     58.8617E-03     35.4998E-03     33.9459E-03
            3684               1     62.9776E-03     61.1737E-03     36.3008E-03     35.2968E-03
            3685               1     61.0544E-03     61.2295E-03     35.2332E-03     35.3308E-03
            3686               1     61.4084E-03     61.3624E-03     35.4160E-03     35.4094E-03
            3687               1     61.0042E-03     61.6514E-03     35.1975E-03     35.5647E-03
            3688               1     60.5623E-03     61.1116E-03     34.9228E-03     35.2433E-03
            3689               1     60.7647E-03     60.5808E-03     35.0668E-03     34.9558E-03
            3690               1     60.7709E-03     59.7782E-03     35.0703E-03     34.4953E-03
            3691               1     76.8235E-03     87.4889E-03     30.4807E-03     21.1791E-03
            3692               1     96.0477E-03     69.3806E-03     33.6790E-03     26.5502E-03
            3693               1     72.3778E-03     80.9166E-03     29.2709E-03     29.1778E-03
            3694               1     74.8356E-03     70.0127E-03     31.1002E-03     28.3074E-03
            3695               1     75.4506E-03     74.4805E-03     31.6668E-03     33.0260E-03
            3696               1     73.3564E-03     82.4260E-03     32.2057E-03     33.5427E-03
            3697               1     85.9934E-03     77.6804E-03     28.9957E-03     35.2728E-03
            3698               1     71.3117E-03     96.6757E-03     29.6936E-03     38.5322E-03
            3699               1     74.2921E-03     86.6187E-03     28.4321E-03     20.8441E-03
            3700               1     92.6735E-03     69.2110E-03     31.4868E-03     25.6881E-03
            3701               1     69.6920E-03     78.8593E-03     27.3328E-03     27.6966E-03
            3702               1     70.1660E-03     68.0009E-03     29.4577E-03     26.7489E-03
            3703               1     70.2126E-03     68.5890E-03     30.2104E-03     29.2185E-03
            3704               1     66.2858E-03     69.4499E-03     30.5438E-03     30.1170E-03
            3705               1     69.3247E-03     68.1248E-03     32.0025E-03     31.1522E-03
            3706               1     68.5143E-03     71.0039E-03     31.9354E-03     33.7366E-03
            3707               1     70.1043E-03     76.9197E-03     33.4136E-03     34.5781E-03
            3708               1     78.4102E-03     75.0389E-03     30.0939E-03     36.0508E-03
            3709               1     67.7811E-03     88.6139E-03     30.9140E-03     37.9082E-03
            3710               1     67.7825E-03     75.3067E-03     29.4228E-03     23.9279E-03
            3711               1     81.4212E-03     64.1615E-03     31.9453E-03     27.8707E-03
            3712               1     64.6482E-03     71.4230E-03     28.8733E-03     29.4216E-03
            3713               1     65.0664E-03     63.0678E-03     30.4865E-03     28.4214E-03
            3714               1     65.1197E-03     63.3710E-03     31.1746E-03     30.1632E-03
            3715               1     61.9026E-03     63.4488E-03     31.1984E-03     30.7546E-03
            3716               1     63.8074E-03     62.4247E-03     32.4431E-03     31.5233E-03
            3717               1     62.7484E-03     64.3076E-03     32.2361E-03     33.3491E-03
            3718               1     63.5015E-03     67.7438E-03     33.1820E-03     34.2627E-03
            3719               1     66.4582E-03     67.1800E-03     30.9631E-03     35.1927E-03
            3720               1     60.5820E-03     73.4741E-03     31.1757E-03     35.9776E-03
            3721               1     61.4094E-03     63.8638E-03     30.9667E-03     27.6470E-03
            3722               1     69.4039E-03     59.5324E-03     32.9699E-03     30.5165E-03
            3723               1     59.9164E-03     63.9076E-03     31.0021E-03     31.7066E-03
            3724               1     60.6425E-03     58.3197E-03     32.1902E-03     30.5453E-03
            3725               1     60.5065E-03     59.1218E-03     32.6293E-03     31.8782E-03
            3726               1     58.9755E-03     58.6415E-03     32.5824E-03     32.0234E-03
            3727               1     59.4836E-03     58.8132E-03     33.0884E-03     32.9081E-03
            3728               1     58.5644E-03     61.2450E-03     32.8981E-03     34.1651E-03
            3729               1     58.4422E-03     60.7424E-03     32.1051E-03     34.1910E-03
            3730               1     56.0445E-03     61.5297E-03     31.5941E-03     34.2376E-03
            3731               1     58.2152E-03     57.9830E-03     32.6764E-03     31.3833E-03
            3732               1     61.9616E-03     58.4770E-03     34.3575E-03     33.1509E-03
            3733               1     58.5492E-03     60.2708E-03     33.2597E-03     33.9989E-03
            3734               1     59.6454E-03     57.9101E-03     34.1996E-03     33.1044E-03
            3735               1     59.6399E-03     58.3122E-03     34.2637E-03     33.5876E-03
            3736               1     58.1590E-03     59.6767E-03     33.5575E-03     34.4326E-03
            3737               1     58.7168E-03     58.9999E-03     33.8897E-03     34.0469E-03
            3738               1     56.4759E-03     57.4776E-03     32.5918E-03     33.1465E-03
            3739               1     97.5523E-03     135.294E-03     10.5281E-03     10.5853E-03
            3740               1     134.271E-03     105.735E-03     17.1140E-03     18.6395E-03
            3741               1     91.8670E-03     120.341E-03     20.3467E-03     21.5438E-03
            3742               1     103.505E-03     104.348E-03     26.8125E-03     26.3017E-03
            3743               1     102.034E-03     103.952E-03     29.1626E-03     28.9654E-03
            3744               1     96.8562E-03     114.475E-03     35.6954E-03     34.1962E-03
            3745               1     125.731E-03     108.528E-03     41.0340E-03     39.9818E-03
            3746               1     113.896E-03     134.350E-03     47.6513E-03     46.2570E-03
            3747               1     92.6856E-03     127.280E-03     10.9361E-03     11.1195E-03
            3748               1     126.968E-03     100.419E-03     15.9927E-03     18.1306E-03
            3749               1     87.6160E-03     113.537E-03     18.4478E-03     19.8352E-03
            3750               1     94.0719E-03     95.7485E-03     22.4300E-03     23.0474E-03
            3751               1     89.6655E-03     96.4055E-03     23.7607E-03     24.7866E-03
            3752               1     85.2125E-03     93.0291E-03     26.9552E-03     26.2808E-03
            3753               1     87.1116E-03     91.7725E-03     29.4156E-03     28.9570E-03
            3754               1     88.1221E-03     88.3200E-03     32.5153E-03     30.3850E-03
            3755               1     86.3028E-03     97.5325E-03     36.2918E-03     35.0845E-03
            3756               1     107.574E-03     95.0005E-03     41.5201E-03     39.6474E-03
            3757               1     101.433E-03     115.570E-03     46.4770E-03     44.9307E-03
            3758               1     77.1264E-03     103.311E-03     16.2964E-03     16.2536E-03
            3759               1     104.700E-03     83.9835E-03     19.9260E-03     21.5136E-03
            3760               1     73.9498E-03     93.3385E-03     21.2360E-03     22.1898E-03
            3761               1     78.1623E-03     78.7918E-03     24.1038E-03     24.2603E-03
            3762               1     73.6606E-03     78.3499E-03     24.7058E-03     25.5187E-03
            3763               1     70.1011E-03     74.7005E-03     27.1244E-03     26.3814E-03
            3764               1     70.3783E-03     73.1823E-03     28.7004E-03     28.4662E-03
            3765               1     70.9630E-03     70.3886E-03     31.2094E-03     29.4241E-03
            3766               1     70.3582E-03     75.4301E-03     33.8107E-03     32.9739E-03
            3767               1     82.3305E-03     76.1193E-03     37.9844E-03     36.7166E-03
            3768               1     81.6533E-03     87.7144E-03     41.4308E-03     40.1260E-03
            3769               1     61.8983E-03     77.5641E-03     22.3114E-03     22.0036E-03
            3770               1     79.9240E-03     66.9282E-03     24.4808E-03     25.4447E-03
            3771               1     59.7771E-03     70.8132E-03     24.6182E-03     25.0198E-03
            3772               1     61.5594E-03     61.1597E-03     26.4266E-03     26.1193E-03
            3773               1     57.7033E-03     59.4578E-03     26.4795E-03     26.6754E-03
            3774               1     56.0945E-03     57.4584E-03     28.2266E-03     27.6103E-03
            3775               1     56.8077E-03     55.8067E-03     29.5064E-03     28.6621E-03
            3776               1     57.1549E-03     57.2535E-03     31.2309E-03     30.5234E-03
            3777               1     61.9708E-03     61.0013E-03     34.1702E-03     33.7586E-03
            3778               1     64.2910E-03     63.9576E-03     36.0296E-03     34.9968E-03
            3779               1     53.7388E-03     58.5954E-03     27.9058E-03     27.3131E-03
            3780               1     60.3842E-03     55.7612E-03     28.6562E-03     29.1613E-03
            3781               1     51.4786E-03     53.8803E-03     27.9290E-03     27.6813E-03
            3782               1     51.1444E-03     50.2036E-03     28.5353E-03     28.0143E-03
            3783               1     50.3315E-03     49.7158E-03     28.7602E-03     28.2773E-03
            3784               1     51.2961E-03     50.2592E-03     29.4920E-03     28.9835E-03
            3785               1     54.6131E-03     54.4272E-03     31.1072E-03     31.3426E-03
            3786               1     55.0891E-03     54.2628E-03     31.7115E-03     30.9469E-03
            3787               1     136.169E-03     160.180E-03    -12.3649E-03    -3.15031E-03
            3788               1     153.966E-03     126.931E-03    -1.83372E-03     5.08738E-03
            3789               1     127.509E-03     142.335E-03     15.3413E-03     13.9339E-03
            3790               1     130.962E-03     126.470E-03     17.2605E-03     20.6577E-03
            3791               1     128.223E-03     124.947E-03     26.4086E-03     23.7235E-03
            3792               1     121.037E-03     127.459E-03     30.0509E-03     30.0084E-03
            3793               1     140.428E-03     119.735E-03     47.2340E-03     39.9565E-03
            3794               1     134.025E-03     134.886E-03     57.2349E-03     49.2152E-03
            3795               1     127.134E-03     149.964E-03    -9.90562E-03    -1.93246E-03
            3796               1     143.488E-03     118.082E-03    -1.54533E-03     4.16826E-03
            3797               1     116.189E-03     130.758E-03     12.7461E-03     11.4479E-03
            3798               1     118.993E-03     113.879E-03     12.9703E-03     16.3869E-03
            3799               1     111.239E-03     112.752E-03     17.9140E-03     18.0270E-03
            3800               1     108.302E-03     107.413E-03     20.8161E-03     21.3531E-03
            3801               1     104.179E-03     103.718E-03     23.8728E-03     23.7614E-03
            3802               1     104.213E-03     99.6960E-03     29.0044E-03     26.8957E-03
            3803               1     98.7380E-03     101.723E-03     31.8412E-03     30.7979E-03
            3804               1     115.332E-03     99.0298E-03     45.8887E-03     39.4791E-03
            3805               1     112.055E-03     109.637E-03     53.0797E-03     46.3915E-03
            3806               1     102.456E-03     122.516E-03    -1.33857E-03     4.61910E-03
            3807               1     115.021E-03     94.9882E-03     4.78037E-03     8.72824E-03
            3808               1     92.1549E-03     103.985E-03     15.1913E-03     13.7550E-03
            3809               1     92.7026E-03     89.0239E-03     14.8228E-03     17.4807E-03
            3810               1     85.2910E-03     86.6599E-03     18.3293E-03     18.3711E-03
            3811               1     81.6506E-03     81.2337E-03     20.3448E-03     20.8881E-03
            3812               1     77.3931E-03     76.7754E-03     22.5172E-03     22.4240E-03
            3813               1     76.0042E-03     73.3910E-03     26.1443E-03     24.8697E-03
            3814               1     72.5143E-03     72.3460E-03     28.5984E-03     27.4470E-03
            3815               1     82.6217E-03     72.8178E-03     38.4072E-03     33.7783E-03
            3816               1     82.7694E-03     78.1803E-03     43.3897E-03     38.8861E-03
            3817               1     75.1074E-03     91.2063E-03     8.09366E-03     11.8732E-03
            3818               1     82.3895E-03     68.8410E-03     11.7638E-03     13.9257E-03
            3819               1     65.1926E-03     73.1857E-03     17.9836E-03     16.5675E-03
            3820               1     62.8236E-03     60.8350E-03     17.2383E-03     19.0026E-03
            3821               1     56.7155E-03     57.9494E-03     19.4219E-03     19.4030E-03
            3822               1     53.1016E-03     52.3944E-03     20.7576E-03     20.9625E-03
            3823               1     50.2567E-03     49.9293E-03     22.7382E-03     22.3238E-03
            3824               1     49.5398E-03     47.0577E-03     24.8843E-03     23.7788E-03
            3825               1     54.3115E-03     50.2782E-03     30.2367E-03     27.4760E-03
            3826               1     57.6616E-03     53.9414E-03     33.1498E-03     30.9846E-03
            3827               1     52.0474E-03     62.4789E-03     16.7448E-03     18.4961E-03
            3828               1     52.7513E-03     45.9959E-03     17.8416E-03     18.4060E-03
            3829               1     42.1799E-03     45.0099E-03     20.1652E-03     18.9763E-03
            3830               1     38.2999E-03     37.8716E-03     19.2123E-03     19.9622E-03
            3831               1     35.8256E-03     36.6291E-03     20.1592E-03     20.2626E-03
            3832               1     37.5348E-03     35.9511E-03     21.6370E-03     20.6388E-03
            3833               1     42.0010E-03     39.5978E-03     22.9205E-03     22.0312E-03
            3834               1     45.5894E-03     48.4124E-03     23.9689E-03     23.9081E-03
            3947               1     244.430E-03     264.568E-03    -45.3740E-03    -44.0656E-03
            3948               1     281.899E-03     299.410E-03    -47.0764E-03    -50.0292E-03
            3949               1     262.534E-03     251.739E-03    -39.3076E-03    -39.6229E-03
            3950               1     280.244E-03     265.733E-03    -55.3680E-03    -50.6262E-03
            3951               1     237.099E-03     252.512E-03    -31.1857E-03    -34.4505E-03
            3952               1     293.563E-03     319.401E-03    -31.3553E-03    -37.5795E-03
            3953               1     265.239E-03     271.191E-03    -36.1670E-03    -36.0015E-03
            3954               1     306.941E-03     289.555E-03    -50.3468E-03    -47.8817E-03
            3955               1     272.766E-03     270.155E-03    -51.8900E-03    -49.0687E-03
            3956               1     289.111E-03     301.013E-03    -61.0738E-03    -58.0053E-03
            3957               1     266.462E-03     265.689E-03    -58.1736E-03    -57.8325E-03
            3958               1     290.973E-03     278.338E-03    -72.4131E-03    -70.6233E-03
            3959               1     252.649E-03     245.708E-03    -64.7410E-03    -62.0982E-03
            3960               1     270.523E-03     269.040E-03    -73.6872E-03    -70.1979E-03
            3961               1     34.4107E-03     36.1994E-03    -19.8290E-03    -19.6279E-03
            3962               1     34.9356E-03     37.1592E-03    -20.0238E-03    -19.9977E-03
            3963               1     42.9565E-03     35.6978E-03    -20.2174E-03    -20.0152E-03
            3964               1     38.1863E-03     47.9983E-03    -19.7660E-03    -19.4666E-03
            3965               1     33.5061E-03     32.2512E-03    -18.8024E-03    -18.4439E-03
            3966               1     33.5708E-03     34.9478E-03    -18.5907E-03    -18.2945E-03
            3967               1     39.5650E-03     38.2731E-03    -18.8604E-03    -18.4806E-03
            3968               1     46.1255E-03     45.5389E-03    -18.5128E-03    -18.3413E-03
            3969               1     53.4965E-03     53.3628E-03    -18.6467E-03    -18.4681E-03
            3970               1     60.9938E-03     62.9255E-03    -18.3217E-03    -18.4927E-03
            3971               1     72.5326E-03     71.0198E-03    -18.4253E-03    -18.6746E-03
            3972               1     79.6619E-03     79.0016E-03    -18.4007E-03    -18.4320E-03
            3973               1     84.8379E-03     99.0979E-03    -18.2225E-03    -18.7033E-03
            3974               1     116.960E-03     88.2927E-03    -19.0512E-03    -18.7736E-03
            3975               1     88.7654E-03     115.315E-03    -18.1831E-03    -17.4123E-03
            3976               1     68.6287E-03     67.5699E-03    -17.6237E-03    -17.5489E-03
            3977               1     86.4468E-03     78.0174E-03    -17.1078E-03    -17.0096E-03
            3978               1     88.2296E-03     93.9897E-03    -17.6771E-03    -16.8756E-03
            3979               1     101.554E-03     99.2187E-03    -17.3557E-03    -17.2599E-03
            3980               1     109.532E-03     112.470E-03    -17.1152E-03    -16.8771E-03
            3981               1     122.932E-03     120.951E-03    -17.0652E-03    -17.4017E-03
            3982               1     130.442E-03     128.699E-03    -16.8251E-03    -16.8984E-03
            3983               1     133.504E-03     155.153E-03    -16.6305E-03    -17.4371E-03
            3984               1     177.440E-03     135.057E-03    -17.6528E-03    -17.4806E-03
            3985               1     132.735E-03     169.245E-03    -16.5380E-03    -15.6488E-03
            3986               1     113.098E-03     120.773E-03    -16.4090E-03    -16.5499E-03
            3987               1     147.963E-03     126.368E-03    -15.4777E-03    -15.4491E-03
            3988               1     139.352E-03     152.424E-03    -16.4343E-03    -15.2835E-03
            3989               1     155.978E-03     152.575E-03    -15.9968E-03    -15.9039E-03
            3990               1     164.453E-03     167.714E-03    -15.6481E-03    -15.2955E-03
            3991               1     178.190E-03     176.419E-03    -15.5828E-03    -16.0678E-03
            3992               1     185.761E-03     182.933E-03    -15.2375E-03    -15.3488E-03
            3993               1     186.077E-03     215.127E-03    -14.9548E-03    -16.0886E-03
            3994               1     241.343E-03     185.363E-03    -16.2852E-03    -16.1145E-03
            3995               1     179.847E-03     225.955E-03    -14.8377E-03    -13.8354E-03
            3996               1     54.1869E-03     54.7004E-03    -31.2619E-03    -31.0045E-03
            3997               1     55.0450E-03     55.8254E-03    -31.7202E-03    -31.5352E-03
            3998               1     59.3011E-03     55.1664E-03    -31.8080E-03    -31.5456E-03
            3999               1     56.0368E-03     60.9503E-03    -31.2466E-03    -30.8261E-03
            4000               1     49.7210E-03     48.8954E-03    -28.3799E-03    -28.1543E-03
            4001               1     51.7001E-03     51.3927E-03    -29.4146E-03    -28.6929E-03
            4002               1     53.3931E-03     53.0954E-03    -28.6578E-03    -28.7196E-03
            4003               1     57.5663E-03     57.1858E-03    -28.9314E-03    -28.8263E-03
            4004               1     61.8757E-03     62.2517E-03    -28.7876E-03    -29.0368E-03
            4005               1     67.1317E-03     68.8261E-03    -28.8612E-03    -29.1961E-03
            4006               1     75.2950E-03     74.4050E-03    -29.0348E-03    -29.1699E-03
            4007               1     80.8790E-03     80.1768E-03    -29.1328E-03    -28.8597E-03
            4008               1     83.8889E-03     95.0151E-03    -28.8292E-03    -29.2141E-03
            4009               1     109.483E-03     86.7941E-03    -29.9354E-03    -29.0113E-03
            4010               1     86.8379E-03     106.350E-03    -28.8193E-03    -27.5212E-03
            4011               1     71.8368E-03     71.9721E-03    -27.4222E-03    -27.8653E-03
            4012               1     85.7430E-03     78.7425E-03    -27.9884E-03    -27.3485E-03
            4013               1     86.5764E-03     91.2468E-03    -27.7664E-03    -27.7657E-03
            4014               1     96.4142E-03     94.6554E-03    -27.7470E-03    -27.6008E-03
            4015               1     103.265E-03     105.651E-03    -27.7301E-03    -28.1755E-03
            4016               1     113.841E-03     112.732E-03    -27.9500E-03    -28.0672E-03
            4017               1     121.043E-03     119.246E-03    -28.2629E-03    -27.9964E-03
            4018               1     122.573E-03     141.122E-03    -27.6890E-03    -28.3825E-03
            4019               1     160.116E-03     124.528E-03    -29.2174E-03    -28.2426E-03
            4020               1     122.505E-03     151.959E-03    -27.9227E-03    -26.2461E-03
            4021               1     106.253E-03     113.572E-03    -25.9928E-03    -26.9541E-03
            4022               1     135.303E-03     117.061E-03    -26.3621E-03    -25.8401E-03
            4023               1     127.812E-03     138.899E-03    -26.4699E-03    -26.3175E-03
            4024               1     141.128E-03     138.373E-03    -26.3051E-03    -26.1911E-03
            4025               1     148.769E-03     151.515E-03    -26.3687E-03    -26.8782E-03
            4026               1     160.289E-03     159.175E-03    -26.6621E-03    -26.6956E-03
            4027               1     167.844E-03     165.153E-03    -27.0290E-03    -26.7824E-03
            4028               1     167.357E-03     192.884E-03    -26.3297E-03    -27.1563E-03
            4029               1     215.718E-03     167.490E-03    -28.0931E-03    -27.0944E-03
            4030               1     162.828E-03     201.612E-03    -26.7263E-03    -24.6315E-03
            4031               1     70.7559E-03     70.1850E-03    -40.8333E-03    -40.2998E-03
            4032               1     71.2010E-03     71.6152E-03    -41.0717E-03    -40.9715E-03
            4033               1     73.4640E-03     71.2678E-03    -41.2470E-03    -40.9779E-03
            4034               1     71.5710E-03     73.2532E-03    -40.7426E-03    -40.0960E-03
            4035               1     64.5820E-03     63.8612E-03    -36.9940E-03    -36.8466E-03
            4036               1     64.2426E-03     65.3780E-03    -36.6364E-03    -37.0145E-03
            4037               1     66.2560E-03     67.0350E-03    -36.9482E-03    -37.4072E-03
            4038               1     69.0410E-03     69.4118E-03    -37.1596E-03    -37.4724E-03
            4039               1     72.1873E-03     72.2928E-03    -37.6417E-03    -37.4915E-03
            4040               1     75.3644E-03     75.4557E-03    -37.7605E-03    -37.2954E-03
            4041               1     80.0909E-03     78.6970E-03    -37.8738E-03    -37.4126E-03
            4042               1     82.9361E-03     81.5223E-03    -37.8655E-03    -36.9979E-03
            4043               1     84.2811E-03     90.8999E-03    -37.1529E-03    -37.3798E-03
            4044               1     100.558E-03     85.2795E-03    -38.2594E-03    -37.3230E-03
            4045               1     84.9013E-03     95.9316E-03    -36.9123E-03    -35.3166E-03
            4046               1     77.8316E-03     78.4177E-03    -36.3645E-03    -36.9313E-03
            4047               1     86.2798E-03     82.8425E-03    -35.4529E-03    -36.4634E-03
            4048               1     86.8469E-03     91.0549E-03    -36.2889E-03    -36.5793E-03
            4049               1     94.8946E-03     94.5552E-03    -36.4838E-03    -37.2474E-03
            4050               1     99.5293E-03     101.771E-03    -36.8297E-03    -36.7151E-03
            4051               1     107.877E-03     106.432E-03    -37.5005E-03    -37.0166E-03
            4052               1     111.902E-03     110.008E-03    -37.4394E-03    -36.3114E-03
            4053               1     112.736E-03     125.264E-03    -36.9456E-03    -36.9648E-03
            4054               1     139.778E-03     113.033E-03    -38.4305E-03    -37.0003E-03
            4055               1     110.757E-03     130.150E-03    -36.4963E-03    -34.1895E-03
            4056               1     101.590E-03     107.419E-03    -35.3119E-03    -36.5587E-03
            4057               1     122.908E-03     110.313E-03    -33.7486E-03    -35.2985E-03
            4058               1     116.977E-03     126.440E-03    -35.1163E-03    -35.4197E-03
            4059               1     128.790E-03     127.696E-03    -35.2287E-03    -36.3936E-03
            4060               1     134.418E-03     137.512E-03    -35.6006E-03    -35.5588E-03
            4061               1     144.175E-03     143.043E-03    -36.5850E-03    -36.0289E-03
            4062               1     148.876E-03     146.189E-03    -36.5750E-03    -35.0291E-03
            4063               1     147.904E-03     166.685E-03    -36.0125E-03    -36.0241E-03
            4064               1     185.252E-03     146.979E-03    -37.9511E-03    -36.0689E-03
            4065               1     142.185E-03     169.996E-03    -35.4098E-03    -32.5486E-03
            4066               1     81.2047E-03     80.5821E-03    -46.8571E-03    -46.4891E-03
            4067               1     83.0641E-03     82.8111E-03    -47.9439E-03    -47.6419E-03
            4068               1     84.3532E-03     82.8316E-03    -48.1449E-03    -47.7131E-03
            4069               1     81.5912E-03     81.7355E-03    -46.8560E-03    -46.3083E-03
            4070               1     73.8203E-03     75.1282E-03    -42.2302E-03    -43.2755E-03
            4071               1     76.2760E-03     77.9084E-03    -43.5548E-03    -44.2962E-03
            4072               1     77.1613E-03     78.5201E-03    -43.2789E-03    -44.1025E-03
            4073               1     78.9717E-03     78.5448E-03    -43.6490E-03    -43.2817E-03
            4074               1     80.4581E-03     78.4615E-03    -43.7498E-03    -42.5812E-03
            4075               1     80.9307E-03     80.0059E-03    -43.3871E-03    -42.6162E-03
            4076               1     83.0335E-03     80.3821E-03    -43.5802E-03    -42.2352E-03
            4077               1     83.7260E-03     81.4932E-03    -43.3419E-03    -42.2694E-03
            4078               1     83.3208E-03     86.5677E-03    -42.7812E-03    -42.9206E-03
            4079               1     92.5438E-03     83.6776E-03    -43.7944E-03    -43.0546E-03
            4080               1     82.1677E-03     87.3609E-03    -41.9396E-03    -41.0906E-03
            4081               1     83.0113E-03     85.2182E-03    -42.4354E-03    -44.3484E-03
            4082               1     89.4208E-03     88.5635E-03    -43.0935E-03    -44.3383E-03
            4083               1     91.4601E-03     95.0487E-03    -43.5320E-03    -44.5881E-03
            4084               1     95.4593E-03     94.8841E-03    -43.5425E-03    -43.2799E-03
            4085               1     98.5086E-03     98.0085E-03    -43.7096E-03    -42.8633E-03
            4086               1     101.482E-03     99.4053E-03    -43.3229E-03    -42.3813E-03
            4087               1     103.216E-03     100.128E-03    -43.4669E-03    -41.7952E-03
            4088               1     101.896E-03     108.843E-03    -42.5421E-03    -42.3507E-03
            4089               1     118.466E-03     99.9916E-03    -44.1221E-03    -42.4255E-03
            4090               1     98.5926E-03     108.612E-03    -41.8919E-03    -40.1060E-03
            4091               1     98.4943E-03     103.362E-03    -41.9276E-03    -44.6152E-03
            4092               1     113.175E-03     106.292E-03    -42.1862E-03    -44.0354E-03
            4093               1     112.693E-03     119.680E-03    -43.0686E-03    -44.3681E-03
            4094               1     119.298E-03     118.683E-03    -42.8379E-03    -42.9317E-03
            4095               1     123.826E-03     123.843E-03    -43.1256E-03    -42.3223E-03
            4096               1     127.987E-03     125.845E-03    -42.5296E-03    -41.6004E-03
            4097               1     129.900E-03     126.478E-03    -42.7925E-03    -40.8541E-03
            4098               1     127.452E-03     138.934E-03    -41.7035E-03    -41.1478E-03
            4099               1     151.546E-03     122.997E-03    -43.6779E-03    -41.4085E-03
            4100               1     120.716E-03     136.989E-03    -41.1445E-03    -38.6654E-03
            4101               1     88.2174E-03     86.0743E-03    -50.8969E-03    -49.6734E-03
            4102               1     87.6695E-03     88.2996E-03    -50.5041E-03    -50.9134E-03
            4103               1     87.7214E-03     88.1326E-03    -50.5637E-03    -50.7969E-03
            4104               1     88.2159E-03     85.8881E-03    -50.8484E-03    -49.4297E-03
            4105               1     88.3985E-03     85.6232E-03    -50.5068E-03    -49.1271E-03
            4106               1     87.9036E-03     86.3794E-03    -49.4192E-03    -48.9147E-03
            4107               1     84.6879E-03     84.6964E-03    -47.3897E-03    -47.3963E-03
            4108               1     83.6189E-03     81.7450E-03    -46.4829E-03    -45.6438E-03
            4109               1     82.0702E-03     81.8405E-03    -45.4764E-03    -45.6204E-03
            4110               1     80.9218E-03     80.3302E-03    -44.9006E-03    -44.5973E-03
            4111               1     80.9257E-03     81.0682E-03    -44.7818E-03    -45.1242E-03
            4112               1     80.9423E-03     79.9507E-03    -44.8950E-03    -44.4017E-03
            4113               1     80.3092E-03     82.8050E-03    -44.6591E-03    -45.7160E-03
            4114               1     85.5679E-03     82.8847E-03    -46.7229E-03    -46.3055E-03
            4115               1     83.4834E-03     82.1118E-03    -46.5976E-03    -44.7264E-03
            4116               1     95.6753E-03     93.7601E-03    -52.0477E-03    -51.0476E-03
            4117               1     99.5089E-03     94.9913E-03    -50.6420E-03    -50.2149E-03
            4118               1     95.1827E-03     95.4173E-03    -48.6152E-03    -48.1178E-03
            4119               1     95.3592E-03     92.5429E-03    -47.4882E-03    -46.6019E-03
            4120               1     93.1070E-03     92.3746E-03    -45.7047E-03    -45.9356E-03
            4121               1     93.2352E-03     92.0696E-03    -45.5161E-03    -45.4097E-03
            4122               1     91.9998E-03     90.4574E-03    -44.6944E-03    -44.6116E-03
            4123               1     89.5446E-03     94.6264E-03    -43.9113E-03    -45.4290E-03
            4124               1     98.2892E-03     90.1963E-03    -45.8155E-03    -45.3906E-03
            4125               1     89.0865E-03     90.6012E-03    -45.1224E-03    -43.0058E-03
            4126               1     105.967E-03     105.685E-03    -53.1605E-03    -52.4778E-03
            4127               1     116.509E-03     107.057E-03    -51.3256E-03    -50.9192E-03
            4128               1     110.157E-03     111.751E-03    -49.4284E-03    -48.4886E-03
            4129               1     112.199E-03     107.974E-03    -47.9281E-03    -46.8903E-03
            4130               1     110.149E-03     108.783E-03    -45.5477E-03    -45.9304E-03
            4131               1     111.040E-03     108.850E-03    -45.3988E-03    -45.2017E-03
            4132               1     109.398E-03     106.699E-03    -43.9124E-03    -44.0594E-03
            4133               1     105.235E-03     113.797E-03    -42.7806E-03    -44.8277E-03
            4134               1     119.715E-03     103.736E-03    -44.7332E-03    -44.2220E-03
            4135               1     100.736E-03     106.725E-03    -43.6834E-03    -41.2420E-03
            4136               1     81.8867E-03     83.1620E-03    -46.8633E-03    -47.3826E-03
            4137               1     83.7557E-03     82.3667E-03    -48.1509E-03    -47.4560E-03
            4138               1     84.1524E-03     82.5921E-03    -48.5755E-03    -47.6528E-03
            4139               1     81.6581E-03     82.4879E-03    -47.0680E-03    -47.4663E-03
            4140               1     88.2721E-03     88.1561E-03    -49.1043E-03    -48.6535E-03
            4141               1     90.3834E-03     87.2574E-03    -50.4017E-03    -48.7132E-03
            4142               1     84.0397E-03     83.1303E-03    -47.5636E-03    -46.3083E-03
            4143               1     81.3718E-03     81.8904E-03    -45.9004E-03    -46.2232E-03
            4144               1     78.7361E-03     79.2019E-03    -44.6416E-03    -44.7061E-03
            4145               1     77.3139E-03     78.6310E-03    -43.9435E-03    -44.6947E-03
            4146               1     76.3776E-03     77.1289E-03    -43.5451E-03    -44.0366E-03
            4147               1     76.5394E-03     77.3821E-03    -43.8177E-03    -44.3381E-03
            4148               1     76.3185E-03     77.1535E-03    -43.7955E-03    -44.3501E-03
            4149               1     81.0162E-03     80.2252E-03    -46.6290E-03    -46.2002E-03
            4150               1     78.7018E-03     77.9137E-03    -45.3936E-03    -44.9427E-03
            4151               1     95.6483E-03     96.7352E-03    -50.8658E-03    -50.6610E-03
            4152               1     98.4404E-03     93.2628E-03    -52.0886E-03    -49.9658E-03
            4153               1     91.5569E-03     90.8274E-03    -49.7830E-03    -47.7925E-03
            4154               1     88.0775E-03     88.0525E-03    -47.2702E-03    -47.4740E-03
            4155               1     84.9180E-03     85.8224E-03    -45.7023E-03    -45.8195E-03
            4156               1     82.7543E-03     83.7253E-03    -44.6601E-03    -45.2994E-03
            4157               1     81.6492E-03     82.1305E-03    -44.1490E-03    -44.6576E-03
            4158               1     78.6293E-03     81.7151E-03    -42.9152E-03    -44.5637E-03
            4159               1     84.4801E-03     82.9314E-03    -45.9787E-03    -46.2872E-03
            4160               1     80.4182E-03     80.2001E-03    -44.6700E-03    -44.1236E-03
            4161               1     104.659E-03     107.289E-03    -52.0418E-03    -52.0866E-03
            4162               1     109.495E-03     101.515E-03    -53.5327E-03    -50.9648E-03
            4163               1     101.419E-03     101.439E-03    -51.7277E-03    -48.8815E-03
            4164               1     98.0778E-03     97.5292E-03    -48.3895E-03    -48.5668E-03
            4165               1     94.4776E-03     95.6405E-03    -46.4090E-03    -46.3989E-03
            4166               1     91.8625E-03     93.1993E-03    -44.9296E-03    -45.7293E-03
            4167               1     90.7256E-03     90.3986E-03    -44.0667E-03    -44.5368E-03
            4168               1     85.2751E-03     91.3149E-03    -41.8083E-03    -44.5364E-03
            4169               1     94.8604E-03     90.0505E-03    -45.6925E-03    -46.4343E-03
            4170               1     88.4514E-03     89.7314E-03    -44.5803E-03    -43.6310E-03
            4171               1     75.4376E-03     76.1685E-03    -41.0227E-03    -41.5117E-03
            4172               1     74.3976E-03     72.9641E-03    -42.6060E-03    -41.8045E-03
            4173               1     83.3623E-03     83.6567E-03    -45.5561E-03    -46.4620E-03
            4174               1     79.8807E-03     79.8275E-03    -45.2651E-03    -45.5238E-03
            4175               1     87.5804E-03     87.9274E-03    -48.0912E-03    -48.2722E-03
            4176               1     84.2101E-03     84.9210E-03    -47.6795E-03    -48.2408E-03
            4177               1     94.1003E-03     93.6896E-03    -51.7098E-03    -51.7703E-03
            4178               1     89.6615E-03     89.0434E-03    -50.7178E-03    -50.4680E-03
            4179               1     99.7083E-03     99.2614E-03    -54.7314E-03    -54.5538E-03
            4180               1     94.3929E-03     94.2517E-03    -53.4268E-03    -53.4323E-03
            4181               1     104.874E-03     103.837E-03    -57.7329E-03    -57.1789E-03
            4182               1     100.569E-03     99.3347E-03    -56.8033E-03    -56.2045E-03
            4183               1     111.332E-03     109.861E-03    -61.0449E-03    -60.4452E-03
            4184               1     103.954E-03     103.305E-03    -58.6469E-03    -58.3482E-03
            4185               1     114.872E-03     113.109E-03    -63.1513E-03    -61.8620E-03
            4186               1     108.821E-03     107.266E-03    -61.1122E-03    -60.5029E-03
            4187               1     121.514E-03     117.673E-03    -65.7624E-03    -64.4974E-03
            4188               1     105.080E-03     107.306E-03    -58.9903E-03    -60.3160E-03
            4189               1     113.511E-03     119.677E-03    -61.1398E-03    -63.2240E-03
            4190               1     107.361E-03     109.702E-03    -61.3887E-03    -62.3602E-03
            4191               1     76.6546E-03     77.8484E-03    -43.8856E-03    -44.7435E-03
            4192               1     77.9839E-03     77.2431E-03    -45.0014E-03    -44.5948E-03
            4193               1     85.2149E-03     85.8205E-03    -48.8047E-03    -49.3067E-03
            4194               1     81.3420E-03     82.0725E-03    -46.8714E-03    -47.3478E-03
            4195               1     88.7679E-03     88.6107E-03    -50.7200E-03    -50.6500E-03
            4196               1     86.1048E-03     86.6232E-03    -49.5876E-03    -49.8930E-03
            4197               1     93.9080E-03     93.6328E-03    -53.5546E-03    -53.4847E-03
            4198               1     90.1637E-03     89.6552E-03    -51.8335E-03    -51.5645E-03
            4199               1     97.8874E-03     97.3763E-03    -55.6026E-03    -55.3424E-03
            4200               1     93.8581E-03     93.5723E-03    -53.9225E-03    -53.7700E-03
            4201               1     101.614E-03     100.686E-03    -57.6729E-03    -57.1444E-03
            4202               1     98.1073E-03     97.1070E-03    -56.2192E-03    -55.6824E-03
            4203               1     106.239E-03     105.140E-03    -59.9689E-03    -59.4414E-03
            4204               1     100.209E-03     99.5783E-03    -57.3361E-03    -56.9930E-03
            4205               1     108.433E-03     106.802E-03    -61.1443E-03    -60.0393E-03
            4206               1     103.354E-03     102.288E-03    -58.8816E-03    -58.4163E-03
            4207               1     113.017E-03     110.385E-03    -62.8722E-03    -61.8956E-03
            4208               1     99.3953E-03     101.454E-03    -56.5784E-03    -57.7411E-03
            4209               1     104.948E-03     109.933E-03    -58.0930E-03    -59.9224E-03
            4210               1     101.228E-03     102.931E-03    -58.1886E-03    -58.9177E-03
            4211               1     82.4612E-03     84.6881E-03    -47.4661E-03    -48.6406E-03
            4212               1     83.4471E-03     83.5841E-03    -48.1345E-03    -48.1387E-03
            4213               1     91.4873E-03     91.5573E-03    -52.7564E-03    -52.8078E-03
            4214               1     85.0358E-03     86.4547E-03    -49.0527E-03    -49.8031E-03
            4215               1     93.4069E-03     92.8099E-03    -53.9273E-03    -53.5822E-03
            4216               1     90.3438E-03     90.5128E-03    -52.1407E-03    -52.2215E-03
            4217               1     96.6683E-03     96.4887E-03    -55.7907E-03    -55.6951E-03
            4218               1     92.3153E-03     91.9529E-03    -53.2957E-03    -53.0793E-03
            4219               1     98.2694E-03     97.7356E-03    -56.6533E-03    -56.3504E-03
            4220               1     95.2277E-03     94.8259E-03    -54.9670E-03    -54.7300E-03
            4221               1     100.499E-03     100.138E-03    -57.8419E-03    -57.6499E-03
            4222               1     96.5019E-03     95.8033E-03    -55.6683E-03    -55.2647E-03
            4223               1     101.776E-03     101.015E-03    -58.4810E-03    -58.0188E-03
            4224               1     98.5955E-03     97.8960E-03    -56.8059E-03    -56.4150E-03
            4225               1     104.020E-03     103.242E-03    -59.5654E-03    -59.1521E-03
            4226               1     98.7845E-03     98.1376E-03    -56.8287E-03    -56.4517E-03
            4227               1     104.380E-03     103.088E-03    -59.6230E-03    -58.7628E-03
            4228               1     99.7163E-03     99.0996E-03    -57.1924E-03    -56.9092E-03
            4229               1     106.262E-03     104.540E-03    -60.0968E-03    -59.3770E-03
            4230               1     95.1905E-03     97.0850E-03    -54.5173E-03    -55.5402E-03
            4231               1     97.7987E-03     101.853E-03    -55.0341E-03    -56.6339E-03
            4232               1     95.5220E-03     96.7779E-03    -54.9977E-03    -55.5202E-03
            4233               1     84.9632E-03     87.2068E-03    -48.9580E-03    -50.0254E-03
            4234               1     82.3485E-03     82.0021E-03    -47.5331E-03    -47.3173E-03
            4235               1     91.7120E-03     89.3982E-03    -52.9153E-03    -51.6086E-03
            4236               1     82.4311E-03     82.7463E-03    -47.5819E-03    -47.7643E-03
            4237               1     92.2917E-03     89.8417E-03    -53.1306E-03    -51.7898E-03
            4238               1     82.2172E-03     82.8689E-03    -47.4618E-03    -47.7987E-03
            4239               1     85.8210E-03     88.5407E-03    -49.2651E-03    -50.4461E-03
            4240               1     82.8338E-03     82.7752E-03    -47.8237E-03    -47.7150E-03
            4241               1     177.166E-03     129.786E-03     7.38216E-03     6.65146E-03
            4242               1     218.917E-03     174.275E-03    -47.5060E-03    -46.4113E-03
            4243               1     184.276E-03     142.332E-03    -44.6514E-03    -44.0763E-03
            4244               1     168.846E-03     131.255E-03    -48.3734E-03    -47.8441E-03
            4245               1     148.310E-03     113.873E-03    -48.4007E-03    -47.6398E-03
            4246               1     129.482E-03     100.677E-03    -48.5404E-03    -48.0238E-03
            4247               1     112.620E-03     89.8070E-03    -48.6377E-03    -47.9273E-03
            4248               1     98.3042E-03     84.0430E-03    -48.5893E-03    -48.0127E-03
            4249               1     88.4612E-03     83.7032E-03    -48.6340E-03    -47.9689E-03
            4250               1     84.2368E-03     89.2230E-03    -48.6006E-03    -48.0050E-03
            4251               1     86.7631E-03     99.4106E-03    -48.6435E-03    -47.9622E-03
            4252               1     95.1830E-03     113.283E-03    -48.5694E-03    -48.0363E-03
            4253               1     108.669E-03     129.168E-03    -48.7060E-03    -47.8997E-03
            4254               1     124.615E-03     147.356E-03    -48.4647E-03    -48.1386E-03
            4255               1     143.953E-03     165.421E-03    -48.8573E-03    -47.7468E-03
            4256               1     162.596E-03     186.220E-03    -48.2506E-03    -48.3189E-03
            4257               1     185.399E-03     204.639E-03    -49.0614E-03    -47.5310E-03
            4258               1     204.102E-03     227.265E-03    -47.8832E-03    -48.2108E-03
            4259               1     229.960E-03     246.239E-03    -48.9068E-03    -47.6892E-03
            4260               1     222.291E-03     262.974E-03    -42.4918E-03    -41.4290E-03
            4261               1     166.284E-03     202.613E-03    -54.5653E-03    -53.8969E-03
            4262               1     146.264E-03     182.665E-03    -40.2271E-03    -39.8176E-03
            4263               1     124.982E-03     158.859E-03    -40.9724E-03    -40.0936E-03
            4264               1     107.053E-03     137.566E-03    -39.7522E-03    -39.3354E-03
            4265               1     91.0955E-03     117.359E-03    -39.9481E-03    -39.1616E-03
            4266               1     78.2835E-03     98.8369E-03    -39.7476E-03    -39.2231E-03
            4267               1     70.5813E-03     83.0851E-03    -39.8320E-03    -39.1368E-03
            4268               1     69.2715E-03     72.0327E-03    -39.7730E-03    -39.1860E-03
            4269               1     75.0196E-03     67.8036E-03    -39.8126E-03    -39.1460E-03
            4270               1     86.1685E-03     71.8477E-03    -39.7673E-03    -39.1906E-03
            4271               1     101.165E-03     82.7063E-03    -39.8414E-03    -39.1165E-03
            4272               1     118.360E-03     98.4247E-03    -39.7072E-03    -39.2513E-03
            4273               1     137.062E-03     116.811E-03    -39.9422E-03    -39.0162E-03
            4274               1     156.810E-03     136.888E-03    -39.5644E-03    -39.4031E-03
            4275               1     176.737E-03     158.373E-03    -40.1333E-03    -38.8298E-03
            4276               1     198.177E-03     179.564E-03    -39.4333E-03    -39.6609E-03
            4277               1     218.083E-03     203.347E-03    -40.2452E-03    -38.7395E-03
            4278               1     240.867E-03     223.631E-03    -40.5363E-03    -40.3464E-03
            4279               1     172.934E-03     145.464E-03     17.4040E-03     19.9832E-03
            4280               1     185.655E-03     160.363E-03    -1.14861E-03    -659.056E-06
            4281               1     190.081E-03     166.197E-03    -27.7390E-03    -27.6112E-03
            4282               1     178.759E-03     155.797E-03    -36.0389E-03    -36.2299E-03
            4283               1     171.386E-03     150.322E-03    -50.1139E-03    -49.6804E-03
            4284               1     152.071E-03     133.371E-03    -52.4763E-03    -52.1189E-03
            4285               1     140.077E-03     124.838E-03    -57.8714E-03    -57.5475E-03
            4286               1     124.494E-03     112.686E-03    -58.7119E-03    -58.3504E-03
            4287               1     115.317E-03     108.020E-03    -60.9054E-03    -60.5893E-03
            4288               1     107.785E-03     105.211E-03    -61.0773E-03    -60.7400E-03
            4289               1     107.305E-03     109.357E-03    -61.8826E-03    -61.5497E-03
            4290               1     110.836E-03     116.884E-03    -61.4602E-03    -61.1458E-03
            4291               1     120.632E-03     129.335E-03    -61.4619E-03    -61.1041E-03
            4292               1     132.699E-03     143.432E-03    -60.1494E-03    -59.8612E-03
            4293               1     149.195E-03     160.528E-03    -59.4140E-03    -58.9808E-03
            4294               1     164.739E-03     177.094E-03    -56.3957E-03    -56.2129E-03
            4295               1     184.806E-03     195.827E-03    -54.8471E-03    -53.9889E-03
            4296               1     199.759E-03     212.851E-03    -48.1299E-03    -48.7206E-03
            4297               1     223.973E-03     232.884E-03    -46.1654E-03    -44.0914E-03
            4298               1     194.238E-03     191.652E-03     9.25051E-03     8.64519E-03
            4299               1     215.985E-03     204.938E-03    -18.0311E-03    -18.3056E-03
            4300               1     206.146E-03     192.328E-03    -27.8855E-03    -28.6934E-03
            4301               1     195.751E-03     181.760E-03    -44.2441E-03    -43.2564E-03
            4302               1     166.441E-03     154.529E-03    -45.2179E-03    -44.4475E-03
            4303               1     150.656E-03     139.320E-03    -49.5946E-03    -48.8281E-03
            4304               1     128.438E-03     118.300E-03    -50.2095E-03    -49.2399E-03
            4305               1     113.931E-03     105.835E-03    -51.9653E-03    -51.2332E-03
            4306               1     100.103E-03     94.2136E-03    -52.2835E-03    -51.3838E-03
            4307               1     93.4479E-03     90.6903E-03    -53.0279E-03    -52.2448E-03
            4308               1     92.2353E-03     92.5653E-03    -52.9856E-03    -52.1539E-03
            4309               1     98.6224E-03     101.525E-03    -53.2031E-03    -52.3627E-03
            4310               1     109.808E-03     114.695E-03    -52.7036E-03    -51.9242E-03
            4311               1     126.166E-03     131.928E-03    -52.5199E-03    -51.6214E-03
            4312               1     143.483E-03     150.261E-03    -51.2345E-03    -50.4915E-03
            4313               1     165.129E-03     171.353E-03    -50.5569E-03    -49.4495E-03
            4314               1     183.420E-03     191.625E-03    -47.5552E-03    -47.1287E-03
            4315               1     210.083E-03     214.676E-03    -46.4763E-03    -44.4426E-03
            4316               1     226.144E-03     236.870E-03    -39.8923E-03    -41.2797E-03
            4317               1     225.996E-03     224.813E-03     8.94975E-03     212.443E-06
            4318               1     236.508E-03     230.456E-03    -22.0670E-03    -25.4585E-03
            4319               1     228.935E-03     223.367E-03    -48.1652E-03    -46.5106E-03
            4320               1     187.420E-03     184.936E-03    -46.4148E-03    -45.1379E-03
            4321               1     168.732E-03     165.514E-03    -46.3829E-03    -45.5770E-03
            4322               1     140.533E-03     137.584E-03    -45.6117E-03    -44.4522E-03
            4323               1     121.035E-03     118.167E-03    -44.9769E-03    -44.1528E-03
            4324               1     100.973E-03     97.8967E-03    -44.9533E-03    -43.8311E-03
            4325               1     86.9283E-03     84.4149E-03    -44.7431E-03    -43.8480E-03
            4326               1     78.6150E-03     76.4599E-03    -44.8012E-03    -43.7564E-03
            4327               1     78.6244E-03     77.4415E-03    -44.7545E-03    -43.7850E-03
            4328               1     86.8698E-03     86.5679E-03    -44.7548E-03    -43.7797E-03
            4329               1     101.408E-03     101.698E-03    -44.7793E-03    -43.7461E-03
            4330               1     119.442E-03     120.429E-03    -44.6946E-03    -43.7748E-03
            4331               1     141.100E-03     142.096E-03    -44.7223E-03    -43.6497E-03
            4332               1     162.226E-03     164.288E-03    -44.5063E-03    -43.5920E-03
            4333               1     188.362E-03     189.065E-03    -44.2981E-03    -43.2655E-03
            4334               1     209.138E-03     213.526E-03    -44.3489E-03    -43.3452E-03
            4335               1     242.622E-03     241.965E-03    -43.6414E-03    -43.1608E-03
            4336               1     296.755E-03     275.642E-03     8.20912E-03     7.88449E-03
            4337               1     269.942E-03     272.632E-03    -53.4503E-03    -50.5532E-03
            4338               1     206.407E-03     214.562E-03    -53.9395E-03    -51.7139E-03
            4339               1     184.981E-03     192.002E-03    -46.7127E-03    -46.1830E-03
            4340               1     154.707E-03     161.426E-03    -45.1285E-03    -43.9770E-03
            4341               1     131.954E-03     138.108E-03    -40.3687E-03    -39.7911E-03
            4342               1     108.432E-03     113.478E-03    -39.6274E-03    -38.6784E-03
            4343               1     88.2999E-03     92.4158E-03    -37.4135E-03    -36.7153E-03
            4344               1     72.5746E-03     74.5753E-03    -37.2078E-03    -36.3072E-03
            4345               1     63.4417E-03     63.2643E-03    -36.3007E-03    -35.5282E-03
            4346               1     65.4690E-03     62.6874E-03    -36.3969E-03    -35.5499E-03
            4347               1     76.0444E-03     71.8726E-03    -36.1695E-03    -35.3404E-03
            4348               1     93.4420E-03     88.8463E-03    -36.6099E-03    -35.8147E-03
            4349               1     114.132E-03     109.470E-03    -36.8658E-03    -36.0044E-03
            4350               1     136.510E-03     132.313E-03    -37.9629E-03    -37.1975E-03
            4351               1     161.195E-03     157.028E-03    -38.6594E-03    -37.9876E-03
            4352               1     184.986E-03     182.068E-03    -41.5360E-03    -40.3824E-03
            4353               1     213.007E-03     209.186E-03    -42.3642E-03    -42.8600E-03
            4354               1     238.922E-03     236.175E-03    -51.9319E-03    -48.4229E-03
            4355               1     351.488E-03     388.760E-03    -46.4100E-03    -37.5586E-03
            4356               1     233.514E-03     254.896E-03    -63.1503E-03    -58.8517E-03
            4357               1     193.968E-03     213.200E-03    -44.0654E-03    -44.3181E-03
            4358               1     166.244E-03     184.037E-03    -45.7559E-03    -44.9065E-03
            4359               1     140.266E-03     157.310E-03    -36.5247E-03    -36.4490E-03
            4360               1     117.431E-03     133.281E-03    -35.5674E-03    -35.1169E-03
            4361               1     93.8596E-03     108.488E-03    -30.8003E-03    -30.5672E-03
            4362               1     73.7779E-03     86.1641E-03    -30.1134E-03    -29.7394E-03
            4363               1     55.8733E-03     64.9408E-03    -27.8996E-03    -27.6065E-03
            4364               1     48.1688E-03     50.7876E-03    -27.7541E-03    -27.4005E-03
            4365               1     51.4877E-03     46.7045E-03    -26.9193E-03    -26.6026E-03
            4366               1     66.6531E-03     57.4764E-03    -27.3371E-03    -26.9977E-03
            4367               1     86.0402E-03     75.5408E-03    -27.3444E-03    -27.0178E-03
            4368               1     108.597E-03     97.9553E-03    -28.6372E-03    -28.3047E-03
            4369               1     131.785E-03     121.621E-03    -29.4390E-03    -29.1551E-03
            4370               1     156.145E-03     146.468E-03    -32.6132E-03    -32.2113E-03
            4371               1     180.595E-03     171.570E-03    -34.5947E-03    -34.7123E-03
            4372               1     205.783E-03     197.384E-03    -42.6976E-03    -41.4903E-03
            4373               1     229.118E-03     221.942E-03    -47.5584E-03    -48.6396E-03
            4374               1     69.0554E-03     69.3442E-03    -39.8463E-03    -39.9549E-03
            4375               1     70.1139E-03     69.8539E-03    -39.5182E-03    -39.1818E-03
            4376               1     71.7996E-03     72.6036E-03    -38.3238E-03    -38.2895E-03
            4377               1     77.3893E-03     78.3569E-03    -38.1508E-03    -38.0025E-03
            4378               1     84.3657E-03     85.9692E-03    -37.8417E-03    -37.8121E-03
            4379               1     93.5996E-03     95.3959E-03    -38.2502E-03    -38.1875E-03
            4380               1     103.670E-03     105.781E-03    -38.6315E-03    -38.6310E-03
            4381               1     115.055E-03     117.254E-03    -39.7932E-03    -39.7621E-03
            4382               1     126.722E-03     129.057E-03    -40.7826E-03    -40.8039E-03
            4383               1     139.347E-03     141.716E-03    -42.8257E-03    -42.7919E-03
            4384               1     151.937E-03     154.355E-03    -44.3275E-03    -44.3703E-03
            4385               1     165.608E-03     168.060E-03    -47.4660E-03    -47.3961E-03
            4386               1     179.211E-03     181.672E-03    -49.2271E-03    -49.3166E-03
            4387               1     194.783E-03     197.315E-03    -54.0197E-03    -53.8491E-03
            4388               1     210.966E-03     213.503E-03    -55.4040E-03    -55.6248E-03
            4389               1     232.019E-03     234.677E-03    -63.7870E-03    -63.3306E-03
            4390               1     258.064E-03     260.863E-03    -63.2412E-03    -63.8087E-03
            4391               1     298.697E-03     301.616E-03    -83.9884E-03    -82.6713E-03
            4392               1     409.703E-03     414.020E-03    -70.4803E-03    -71.3781E-03
            4393               1     77.4282E-03     76.0959E-03    -44.6270E-03    -43.8430E-03
            4394               1     75.9815E-03     76.2965E-03    -43.1643E-03    -43.0820E-03
            4395               1     78.8469E-03     78.7645E-03    -42.7818E-03    -42.3167E-03
            4396               1     83.1510E-03     84.1168E-03    -42.1277E-03    -42.0113E-03
            4397               1     90.4885E-03     91.5183E-03    -42.1884E-03    -41.9657E-03
            4398               1     99.1140E-03     100.687E-03    -42.2205E-03    -42.1822E-03
            4399               1     109.469E-03     111.109E-03    -42.9380E-03    -42.8374E-03
            4400               1     120.605E-03     122.515E-03    -43.5755E-03    -43.6029E-03
            4401               1     132.690E-03     134.593E-03    -45.0672E-03    -45.0006E-03
            4402               1     145.320E-03     147.377E-03    -46.2775E-03    -46.3485E-03
            4403               1     158.453E-03     160.450E-03    -48.6830E-03    -48.5859E-03
            4404               1     172.468E-03     174.575E-03    -50.4106E-03    -50.5310E-03
            4405               1     186.545E-03     188.575E-03    -53.9523E-03    -53.7620E-03
            4406               1     203.256E-03     205.336E-03    -55.9709E-03    -56.1861E-03
            4407               1     219.036E-03     221.109E-03    -60.9624E-03    -60.5926E-03
            4408               1     244.200E-03     246.024E-03    -62.7105E-03    -63.0899E-03
            4409               1     263.422E-03     265.595E-03    -68.3135E-03    -67.7065E-03
            4410               1     327.780E-03     328.052E-03    -69.1483E-03    -69.4527E-03
            4411               1     335.803E-03     335.650E-03    -20.2714E-03    -22.2189E-03
            4412               1     82.6758E-03     82.4307E-03    -47.5396E-03    -47.4188E-03
            4413               1     82.0170E-03     81.5229E-03    -46.6991E-03    -46.2159E-03
            4414               1     83.8709E-03     84.3465E-03    -46.0458E-03    -45.8621E-03
            4415               1     88.6065E-03     89.0163E-03    -45.7067E-03    -45.3715E-03
            4416               1     95.3062E-03     96.4271E-03    -45.5071E-03    -45.4202E-03
            4417               1     104.105E-03     105.241E-03    -45.7772E-03    -45.6102E-03
            4418               1     114.232E-03     115.744E-03    -46.0943E-03    -46.1059E-03
            4419               1     125.464E-03     126.948E-03    -47.0189E-03    -46.9300E-03
            4420               1     137.706E-03     139.403E-03    -47.8627E-03    -47.9368E-03
            4421               1     150.294E-03     151.911E-03    -49.4863E-03    -49.3982E-03
            4422               1     164.218E-03     165.979E-03    -50.9045E-03    -51.0278E-03
            4423               1     177.548E-03     179.210E-03    -53.2372E-03    -53.0910E-03
            4424               1     193.843E-03     195.565E-03    -55.2277E-03    -55.4164E-03
            4425               1     207.452E-03     209.175E-03    -57.8802E-03    -57.6512E-03
            4426               1     229.115E-03     230.576E-03    -60.0710E-03    -60.3496E-03
            4427               1     242.104E-03     244.066E-03    -60.2948E-03    -60.1287E-03
            4428               1     278.673E-03     279.183E-03    -61.0852E-03    -61.3256E-03
            4429               1     288.161E-03     290.126E-03    -36.4880E-03    -37.9154E-03
            4430               1     292.511E-03     296.020E-03    -17.1542E-03    -16.7774E-03
            4431               1     86.6676E-03     86.9607E-03    -49.8174E-03    -49.9456E-03
            4432               1     86.9909E-03     86.8925E-03    -49.6621E-03    -49.3934E-03
            4433               1     88.4173E-03     88.6005E-03    -48.8282E-03    -48.5834E-03
            4434               1     93.0087E-03     93.7579E-03    -48.6061E-03    -48.4903E-03
            4435               1     99.6045E-03     100.376E-03    -48.4319E-03    -48.2619E-03
            4436               1     108.274E-03     109.460E-03    -48.5267E-03    -48.5343E-03
            4437               1     118.209E-03     119.337E-03    -48.9357E-03    -48.8424E-03
            4438               1     129.582E-03     130.955E-03    -49.4066E-03    -49.4822E-03
            4439               1     141.374E-03     142.657E-03    -50.3142E-03    -50.2447E-03
            4440               1     154.703E-03     156.144E-03    -51.2452E-03    -51.3646E-03
            4441               1     167.455E-03     168.800E-03    -52.5549E-03    -52.4611E-03
            4442               1     182.849E-03     184.265E-03    -54.0430E-03    -54.2046E-03
            4443               1     195.750E-03     197.163E-03    -55.2511E-03    -55.1237E-03
            4444               1     214.385E-03     215.628E-03    -57.1679E-03    -57.3677E-03
            4445               1     225.888E-03     227.549E-03    -55.9668E-03    -55.9589E-03
            4446               1     249.718E-03     250.517E-03    -56.7368E-03    -56.8920E-03
            4447               1     257.363E-03     259.472E-03    -43.2957E-03    -44.1677E-03
            4448               1     268.546E-03     270.279E-03    -33.4103E-03    -33.2153E-03
            4449               1     272.015E-03     272.825E-03    -10.1013E-03    -11.2509E-03
            4450               1     92.2423E-03     91.4454E-03    -52.9576E-03    -52.5003E-03
            4451               1     90.4040E-03     90.8056E-03    -51.6695E-03    -51.7417E-03
            4452               1     92.8743E-03     93.2048E-03    -51.5735E-03    -51.4232E-03
            4453               1     96.6400E-03     97.2951E-03    -50.9502E-03    -50.9109E-03
            4454               1     103.559E-03     104.492E-03    -50.9826E-03    -51.0207E-03
            4455               1     111.708E-03     112.582E-03    -50.9756E-03    -50.9268E-03
            4456               1     121.782E-03     122.889E-03    -51.1621E-03    -51.2603E-03
            4457               1     132.398E-03     133.388E-03    -51.4888E-03    -51.4476E-03
            4458               1     144.675E-03     145.831E-03    -51.9135E-03    -52.0387E-03
            4459               1     156.620E-03     157.669E-03    -52.4002E-03    -52.3490E-03
            4460               1     170.796E-03     171.939E-03    -53.1676E-03    -53.3179E-03
            4461               1     183.233E-03     184.338E-03    -53.3967E-03    -53.3292E-03
            4462               1     199.510E-03     200.551E-03    -54.5168E-03    -54.6829E-03
            4463               1     211.179E-03     212.447E-03    -52.9833E-03    -52.9839E-03
            4464               1     229.349E-03     230.209E-03    -53.7379E-03    -53.8566E-03
            4465               1     237.461E-03     239.140E-03    -45.7356E-03    -46.1937E-03
            4466               1     248.938E-03     250.149E-03    -41.2329E-03    -41.1413E-03
            4467               1     251.206E-03     252.820E-03    -24.1936E-03    -25.1751E-03
            4468               1     248.851E-03     251.464E-03    -9.47897E-03    -9.14532E-03
            4469               1     95.5181E-03     95.6280E-03    -54.8262E-03    -54.8977E-03
            4470               1     95.2018E-03     95.0448E-03    -54.4667E-03    -54.2473E-03
            4471               1     95.8027E-03     96.5685E-03    -53.3854E-03    -53.5916E-03
            4472               1     100.804E-03     101.541E-03    -53.4888E-03    -53.6033E-03
            4473               1     106.813E-03     107.565E-03    -53.2174E-03    -53.2851E-03
            4474               1     115.284E-03     116.182E-03    -53.2697E-03    -53.4290E-03
            4475               1     124.350E-03     125.097E-03    -53.2059E-03    -53.2164E-03
            4476               1     135.201E-03     136.103E-03    -53.2403E-03    -53.3900E-03
            4477               1     145.956E-03     146.724E-03    -53.1178E-03    -53.1045E-03
            4478               1     158.638E-03     159.523E-03    -53.1984E-03    -53.3488E-03
            4479               1     170.245E-03     171.054E-03    -52.6932E-03    -52.6676E-03
            4480               1     184.496E-03     185.322E-03    -52.8351E-03    -52.9893E-03
            4481               1     196.095E-03     196.995E-03    -51.0491E-03    -51.0507E-03
            4482               1     211.174E-03     211.900E-03    -50.9733E-03    -51.0827E-03
            4483               1     221.140E-03     222.260E-03    -45.5791E-03    -45.7649E-03
            4484               1     232.558E-03     233.491E-03    -43.7936E-03    -43.7156E-03
            4485               1     236.317E-03     237.748E-03    -32.3077E-03    -32.9239E-03
            4486               1     235.803E-03     237.571E-03    -23.9558E-03    -23.5863E-03
            4487               1     232.530E-03     233.897E-03    -6.59836E-03    -7.39222E-03
            4488               1     100.423E-03     99.7351E-03    -57.6036E-03    -57.2459E-03
            4489               1     97.3909E-03     98.2614E-03    -55.7840E-03    -56.2196E-03
            4490               1     100.333E-03     100.973E-03    -56.0004E-03    -56.2455E-03
            4491               1     104.216E-03     104.960E-03    -55.6845E-03    -55.9205E-03
            4492               1     110.929E-03     111.676E-03    -55.7531E-03    -56.0165E-03
            4493               1     118.253E-03     118.809E-03    -55.5392E-03    -55.6295E-03
            4494               1     127.424E-03     128.096E-03    -55.3690E-03    -55.5655E-03
            4495               1     136.664E-03     137.163E-03    -54.8836E-03    -54.9090E-03
            4496               1     147.617E-03     148.245E-03    -54.4766E-03    -54.6361E-03
            4497               1     157.921E-03     158.437E-03    -53.4532E-03    -53.4549E-03
            4498               1     170.194E-03     170.791E-03    -52.7629E-03    -52.9142E-03
            4499               1     180.913E-03     181.486E-03    -50.6605E-03    -50.6686E-03
            4500               1     193.707E-03     194.246E-03    -49.4771E-03    -49.6049E-03
            4501               1     204.063E-03     204.725E-03    -45.1125E-03    -45.1756E-03
            4502               1     214.723E-03     215.310E-03    -42.8606E-03    -42.8608E-03
            4503               1     223.063E-03     223.829E-03    -34.7703E-03    -34.9277E-03
            4504               1     226.002E-03     227.264E-03    -31.2929E-03    -30.9758E-03
            4505               1     223.252E-03     224.439E-03    -18.5922E-03    -19.1085E-03
            4506               1     214.419E-03     216.357E-03    -6.67693E-03    -6.11882E-03
            4507               1     100.830E-03     101.918E-03    -57.8531E-03    -58.5604E-03
            4508               1     101.917E-03     102.776E-03    -58.3903E-03    -58.8845E-03
            4509               1     104.264E-03     104.978E-03    -58.3789E-03    -58.7429E-03
            4510               1     109.178E-03     109.863E-03    -58.5548E-03    -58.9634E-03
            4511               1     114.909E-03     115.297E-03    -58.4819E-03    -58.6513E-03
            4512               1     122.299E-03     122.759E-03    -58.2877E-03    -58.5447E-03
            4513               1     129.908E-03     130.150E-03    -57.7111E-03    -57.7744E-03
            4514               1     139.009E-03     139.371E-03    -57.0801E-03    -57.2501E-03
            4515               1     147.705E-03     147.928E-03    -55.7902E-03    -55.8094E-03
            4516               1     157.962E-03     158.302E-03    -54.6035E-03    -54.7439E-03
            4517               1     167.154E-03     167.421E-03    -52.2426E-03    -52.2565E-03
            4518               1     177.827E-03     178.155E-03    -50.2394E-03    -50.3694E-03
            4519               1     187.002E-03     187.328E-03    -46.1395E-03    -46.1737E-03
            4520               1     196.385E-03     196.702E-03    -42.8079E-03    -42.8802E-03
            4521               1     205.095E-03     205.410E-03    -36.1513E-03    -36.1817E-03
            4522               1     209.628E-03     210.116E-03    -31.1055E-03    -30.9584E-03
            4523               1     217.139E-03     217.351E-03    -21.5225E-03    -21.3852E-03
            4524               1     211.341E-03     212.997E-03    -18.3693E-03    -17.6899E-03
            4525               1     197.897E-03     199.167E-03    -3.59108E-03    -4.20784E-03
            4526               1     104.624E-03     106.128E-03    -60.3052E-03    -61.1661E-03
            4527               1     106.841E-03     107.441E-03    -61.2781E-03    -61.6614E-03
            4528               1     110.082E-03     110.770E-03    -61.6266E-03    -62.1632E-03
            4529               1     114.721E-03     114.887E-03    -61.9986E-03    -62.1863E-03
            4530               1     120.376E-03     120.613E-03    -61.9106E-03    -62.1995E-03
            4531               1     126.501E-03     126.485E-03    -61.4982E-03    -61.5792E-03
            4532               1     133.796E-03     133.873E-03    -60.8862E-03    -61.0482E-03
            4533               1     140.864E-03     140.801E-03    -59.6023E-03    -59.6284E-03
            4534               1     149.173E-03     149.222E-03    -58.2936E-03    -58.4057E-03
            4535               1     156.614E-03     156.576E-03    -55.8802E-03    -55.8904E-03
            4536               1     165.219E-03     165.291E-03    -53.5631E-03    -53.6656E-03
            4537               1     172.477E-03     172.500E-03    -49.5576E-03    -49.5760E-03
            4538               1     180.172E-03     180.275E-03    -45.6696E-03    -45.7634E-03
            4539               1     186.807E-03     186.855E-03    -39.5115E-03    -39.5264E-03
            4540               1     191.402E-03     191.528E-03    -33.2005E-03    -33.2289E-03
            4541               1     197.496E-03     197.359E-03    -24.6488E-03    -24.5176E-03
            4542               1     195.520E-03     195.714E-03    -15.3073E-03    -15.0872E-03
            4543               1     204.897E-03     204.254E-03    -4.58998E-03    -3.77859E-03
            4544               1     184.759E-03     186.929E-03    -3.17877E-03    -2.05860E-03
            4545               1     111.885E-03     112.120E-03    -64.5867E-03    -64.6839E-03
            4546               1     113.501E-03     113.963E-03    -65.0141E-03    -65.4417E-03
            4547               1     117.619E-03     117.402E-03    -66.0413E-03    -66.1007E-03
            4548               1     121.704E-03     121.586E-03    -66.1295E-03    -66.3183E-03
            4549               1     126.632E-03     126.327E-03    -66.0436E-03    -66.0812E-03
            4550               1     132.335E-03     132.075E-03    -65.6240E-03    -65.7140E-03
            4551               1     138.001E-03     137.679E-03    -64.5738E-03    -64.5886E-03
            4552               1     144.644E-03     144.371E-03    -63.4549E-03    -63.5058E-03
            4553               1     150.537E-03     150.223E-03    -61.2629E-03    -61.2670E-03
            4554               1     157.360E-03     157.121E-03    -59.1298E-03    -59.1698E-03
            4555               1     162.781E-03     162.501E-03    -55.3977E-03    -55.4024E-03
            4556               1     168.753E-03     168.588E-03    -51.6920E-03    -51.7327E-03
            4557               1     172.937E-03     172.720E-03    -45.8938E-03    -45.8999E-03
            4558               1     176.557E-03     176.496E-03    -39.6768E-03    -39.7184E-03
            4559               1     178.870E-03     178.663E-03    -31.4225E-03    -31.3877E-03
            4560               1     178.288E-03     178.238E-03    -21.1514E-03    -21.1856E-03
            4561               1     178.931E-03     178.362E-03    -10.5744E-03    -10.3119E-03
            4562               1     173.018E-03     172.326E-03     7.45604E-03     7.50048E-03
            4563               1     185.004E-03     182.594E-03     18.1828E-03     19.7871E-03
            4564               1     75.3231E-03     75.6239E-03    -43.3987E-03    -43.4807E-03
            4565               1     75.7370E-03     75.7514E-03    -43.1069E-03    -42.9240E-03
            4566               1     76.0965E-03     76.6772E-03    -42.3218E-03    -42.2855E-03
            4567               1     78.4312E-03     79.1754E-03    -42.1528E-03    -42.0658E-03
            4568               1     81.4530E-03     82.5948E-03    -41.8989E-03    -41.8699E-03
            4569               1     85.9867E-03     87.3302E-03    -42.1564E-03    -42.1184E-03
            4570               1     91.0285E-03     92.6307E-03    -42.3148E-03    -42.3105E-03
            4571               1     97.3118E-03     99.0368E-03    -43.0967E-03    -43.0769E-03
            4572               1     103.671E-03     105.554E-03    -43.5700E-03    -43.5843E-03
            4573               1     111.213E-03     113.152E-03    -44.9227E-03    -44.8984E-03
            4574               1     118.418E-03     120.463E-03    -45.5633E-03    -45.5968E-03
            4575               1     127.094E-03     129.160E-03    -47.5681E-03    -47.5137E-03
            4576               1     135.150E-03     137.313E-03    -48.0766E-03    -48.1504E-03
            4577               1     145.702E-03     147.872E-03    -51.0416E-03    -50.9030E-03
            4578               1     155.848E-03     158.160E-03    -50.8239E-03    -51.0007E-03
            4579               1     171.442E-03     173.758E-03    -56.1062E-03    -55.7235E-03
            4580               1     189.770E-03     192.441E-03    -53.8961E-03    -54.3159E-03
            4581               1     222.579E-03     225.297E-03    -68.1970E-03    -67.0505E-03
            4582               1     310.385E-03     314.869E-03    -55.2357E-03    -55.5772E-03
            4583               1     80.7076E-03     80.0412E-03    -46.5125E-03    -46.0660E-03
            4584               1     79.6630E-03     79.9560E-03    -45.4935E-03    -45.4560E-03
            4585               1     80.8106E-03     80.8540E-03    -45.1869E-03    -44.9062E-03
            4586               1     82.5590E-03     83.1910E-03    -44.7373E-03    -44.6424E-03
            4587               1     85.9588E-03     86.7058E-03    -44.7540E-03    -44.6163E-03
            4588               1     90.1309E-03     91.2414E-03    -44.7372E-03    -44.6992E-03
            4589               1     95.5606E-03     96.7836E-03    -45.2305E-03    -45.1679E-03
            4590               1     101.487E-03     102.942E-03    -45.5672E-03    -45.5812E-03
            4591               1     108.398E-03     109.883E-03    -46.5967E-03    -46.5524E-03
            4592               1     115.541E-03     117.200E-03    -47.2171E-03    -47.2683E-03
            4593               1     123.521E-03     125.134E-03    -48.8422E-03    -48.7702E-03
            4594               1     131.779E-03     133.558E-03    -49.6227E-03    -49.7194E-03
            4595               1     140.801E-03     142.471E-03    -51.9337E-03    -51.7823E-03
            4596               1     151.103E-03     152.943E-03    -52.5927E-03    -52.7706E-03
            4597               1     161.926E-03     163.641E-03    -55.7097E-03    -55.3958E-03
            4598               1     178.846E-03     180.564E-03    -55.7426E-03    -56.0286E-03
            4599               1     193.233E-03     195.025E-03    -58.8682E-03    -58.2985E-03
            4600               1     241.928E-03     242.358E-03    -57.7968E-03    -57.8511E-03
            4601               1     249.346E-03     248.733E-03    -16.7743E-03    -18.2064E-03
            4602               1     84.2788E-03     84.4009E-03    -48.5852E-03    -48.5948E-03
            4603               1     83.7840E-03     83.5169E-03    -47.9129E-03    -47.6053E-03
            4604               1     84.3257E-03     84.6167E-03    -47.3504E-03    -47.2217E-03
            4605               1     86.3392E-03     86.6260E-03    -47.0709E-03    -46.8603E-03
            4606               1     89.4810E-03     90.1919E-03    -46.9156E-03    -46.8418E-03
            4607               1     93.8585E-03     94.6499E-03    -47.1042E-03    -47.0009E-03
            4608               1     99.1310E-03     100.194E-03    -47.2964E-03    -47.2956E-03
            4609               1     105.283E-03     106.371E-03    -47.9666E-03    -47.9107E-03
            4610               1     112.122E-03     113.405E-03    -48.4726E-03    -48.5218E-03
            4611               1     119.470E-03     120.706E-03    -49.6349E-03    -49.5733E-03
            4612               1     127.646E-03     129.051E-03    -50.4342E-03    -50.5270E-03
            4613               1     135.766E-03     137.070E-03    -52.0511E-03    -51.9389E-03
            4614               1     145.722E-03     147.170E-03    -53.0310E-03    -53.1856E-03
            4615               1     154.250E-03     155.617E-03    -54.6934E-03    -54.5035E-03
            4616               1     168.199E-03     169.512E-03    -55.4087E-03    -55.6405E-03
            4617               1     176.375E-03     177.930E-03    -54.7606E-03    -54.5901E-03
            4618               1     202.246E-03     202.781E-03    -53.8241E-03    -53.9861E-03
            4619               1     207.549E-03     208.988E-03    -32.7702E-03    -33.8835E-03
            4620               1     210.943E-03     213.851E-03    -14.1967E-03    -14.0665E-03
            4621               1     87.8160E-03     87.8944E-03    -50.6293E-03    -50.6198E-03
            4622               1     87.2541E-03     87.2082E-03    -49.9803E-03    -49.8016E-03
            4623               1     87.4935E-03     87.5713E-03    -49.2599E-03    -49.0842E-03
            4624               1     89.5022E-03     89.9203E-03    -48.9982E-03    -48.9091E-03
            4625               1     92.5656E-03     93.0476E-03    -48.8529E-03    -48.7455E-03
            4626               1     96.9704E-03     97.7208E-03    -48.9130E-03    -48.9093E-03
            4627               1     102.170E-03     102.927E-03    -49.2304E-03    -49.1738E-03
            4628               1     108.407E-03     109.356E-03    -49.5607E-03    -49.6082E-03
            4629               1     115.021E-03     115.927E-03    -50.2568E-03    -50.2122E-03
            4630               1     122.767E-03     123.827E-03    -50.8750E-03    -50.9584E-03
            4631               1     130.212E-03     131.198E-03    -51.8579E-03    -51.7908E-03
            4632               1     139.552E-03     140.646E-03    -52.7542E-03    -52.8767E-03
            4633               1     147.116E-03     148.184E-03    -53.5689E-03    -53.4705E-03
            4634               1     158.769E-03     159.786E-03    -54.4389E-03    -54.6077E-03
            4635               1     164.982E-03     166.276E-03    -53.0660E-03    -53.0536E-03
            4636               1     180.392E-03     181.088E-03    -52.3547E-03    -52.5108E-03
            4637               1     182.917E-03     184.579E-03    -40.5610E-03    -41.2673E-03
            4638               1     189.224E-03     190.645E-03    -30.2059E-03    -30.1756E-03
            4639               1     191.186E-03     191.600E-03    -8.78691E-03    -9.70054E-03
            4640               1     91.7011E-03     91.0570E-03    -52.8449E-03    -52.4438E-03
            4641               1     89.8513E-03     89.9895E-03    -51.5228E-03    -51.5009E-03
            4642               1     90.6112E-03     90.7438E-03    -51.1305E-03    -51.0110E-03
            4643               1     92.0566E-03     92.4158E-03    -50.5843E-03    -50.5530E-03
            4644               1     95.4628E-03     95.9919E-03    -50.5507E-03    -50.5701E-03
            4645               1     99.5160E-03     100.036E-03    -50.5521E-03    -50.5249E-03
            4646               1     104.905E-03     105.587E-03    -50.7075E-03    -50.7709E-03
            4647               1     110.608E-03     111.229E-03    -50.9921E-03    -50.9692E-03
            4648               1     117.596E-03     118.352E-03    -51.3371E-03    -51.4210E-03
            4649               1     124.295E-03     124.982E-03    -51.7618E-03    -51.7296E-03
            4650               1     132.773E-03     133.553E-03    -52.3244E-03    -52.4286E-03
            4651               1     139.772E-03     140.531E-03    -52.5425E-03    -52.4968E-03
            4652               1     149.796E-03     150.528E-03    -53.1807E-03    -53.3052E-03
            4653               1     155.766E-03     156.699E-03    -51.8915E-03    -51.8982E-03
            4654               1     166.800E-03     167.434E-03    -51.6167E-03    -51.7435E-03
            4655               1     169.057E-03     170.375E-03    -44.6456E-03    -45.0272E-03
            4656               1     174.341E-03     175.299E-03    -38.9699E-03    -39.0256E-03
            4657               1     172.707E-03     173.866E-03    -23.3667E-03    -24.1806E-03
            4658               1     168.824E-03     170.894E-03    -8.21096E-03    -8.13063E-03
            4659               1     94.0054E-03     93.9004E-03    -54.1697E-03    -54.0946E-03
            4660               1     93.0894E-03     92.8827E-03    -53.4208E-03    -53.2225E-03
            4661               1     92.6475E-03     93.0590E-03    -52.3846E-03    -52.5004E-03
            4662               1     94.9926E-03     95.3847E-03    -52.2934E-03    -52.3665E-03
            4663               1     97.8028E-03     98.2018E-03    -52.0510E-03    -52.0977E-03
            4664               1     102.204E-03     102.698E-03    -52.0808E-03    -52.1895E-03
            4665               1     106.861E-03     107.252E-03    -52.0594E-03    -52.0711E-03
            4666               1     112.848E-03     113.350E-03    -52.1447E-03    -52.2461E-03
            4667               1     118.617E-03     119.027E-03    -52.1165E-03    -52.1125E-03
            4668               1     125.995E-03     126.491E-03    -52.2685E-03    -52.3683E-03
            4669               1     132.288E-03     132.741E-03    -51.9767E-03    -51.9659E-03
            4670               1     140.892E-03     141.346E-03    -52.1356E-03    -52.2356E-03
            4671               1     146.771E-03     147.332E-03    -50.8330E-03    -50.8475E-03
            4672               1     155.785E-03     156.165E-03    -50.5143E-03    -50.5909E-03
            4673               1     159.289E-03     160.107E-03    -46.1416E-03    -46.3066E-03
            4674               1     164.436E-03     165.044E-03    -43.3093E-03    -43.3297E-03
            4675               1     162.291E-03     163.376E-03    -32.9829E-03    -33.5070E-03
            4676               1     157.491E-03     158.874E-03    -23.1689E-03    -23.0668E-03
            4677               1     152.596E-03     153.377E-03    -6.23907E-03    -6.93062E-03
            4678               1     97.2142E-03     96.6544E-03    -55.9826E-03    -55.6694E-03
            4679               1     94.4002E-03     94.9540E-03    -54.2215E-03    -54.5093E-03
            4680               1     95.7081E-03     96.0603E-03    -54.1373E-03    -54.2962E-03
            4681               1     97.3705E-03     97.7627E-03    -53.7779E-03    -53.9369E-03
            4682               1     100.770E-03     101.157E-03    -53.7567E-03    -53.9409E-03
            4683               1     104.387E-03     104.613E-03    -53.5799E-03    -53.6435E-03
            4684               1     109.266E-03     109.564E-03    -53.4891E-03    -53.6257E-03
            4685               1     113.985E-03     114.146E-03    -53.1588E-03    -53.1805E-03
            4686               1     120.100E-03     120.341E-03    -52.9648E-03    -53.0718E-03
            4687               1     125.421E-03     125.581E-03    -52.2640E-03    -52.2730E-03
            4688               1     132.555E-03     132.749E-03    -51.9048E-03    -51.9992E-03
            4689               1     137.863E-03     138.073E-03    -50.3971E-03    -50.4178E-03
            4690               1     145.349E-03     145.469E-03    -49.6125E-03    -49.6793E-03
            4691               1     149.500E-03     149.828E-03    -46.2899E-03    -46.3610E-03
            4692               1     154.814E-03     154.945E-03    -44.2137E-03    -44.1941E-03
            4693               1     155.508E-03     156.027E-03    -37.5972E-03    -37.7341E-03
            4694               1     152.813E-03     153.649E-03    -32.4362E-03    -32.3339E-03
            4695               1     144.897E-03     145.641E-03    -20.2057E-03    -20.6449E-03
            4696               1     133.620E-03     135.262E-03    -6.38903E-03    -6.12827E-03
            4697               1     96.8694E-03     97.7735E-03    -55.7860E-03    -56.3398E-03
            4698               1     97.3914E-03     97.9595E-03    -55.9340E-03    -56.2797E-03
            4699               1     98.3394E-03     98.7592E-03    -55.7188E-03    -55.9772E-03
            4700               1     100.804E-03     101.183E-03    -55.7191E-03    -56.0098E-03
            4701               1     103.599E-03     103.706E-03    -55.5864E-03    -55.7016E-03
            4702               1     107.396E-03     107.542E-03    -55.4230E-03    -55.6053E-03
            4703               1     111.115E-03     111.061E-03    -54.9766E-03    -55.0214E-03
            4704               1     115.954E-03     115.965E-03    -54.5813E-03    -54.6987E-03
            4705               1     120.178E-03     120.065E-03    -53.6356E-03    -53.6544E-03
            4706               1     125.809E-03     125.751E-03    -52.9052E-03    -52.9954E-03
            4707               1     130.095E-03     129.987E-03    -51.1657E-03    -51.1881E-03
            4708               1     136.003E-03     135.880E-03    -49.8799E-03    -49.9488E-03
            4709               1     139.669E-03     139.605E-03    -46.7878E-03    -46.8366E-03
            4710               1     144.372E-03     144.168E-03    -44.4547E-03    -44.4550E-03
            4711               1     146.237E-03     146.209E-03    -39.2667E-03    -39.3186E-03
            4712               1     146.253E-03     146.109E-03    -35.1051E-03    -34.9193E-03
            4713               1     143.675E-03     143.699E-03    -27.2572E-03    -27.1238E-03
            4714               1     132.227E-03     133.481E-03    -20.4807E-03    -20.1625E-03
            4715               1     116.781E-03     117.200E-03    -4.93960E-03    -5.48579E-03
            4716               1     99.4490E-03     100.539E-03    -57.3807E-03    -58.0081E-03
            4717               1     100.634E-03     101.067E-03    -57.8287E-03    -58.1317E-03
            4718               1     102.294E-03     102.727E-03    -57.9238E-03    -58.3123E-03
            4719               1     104.651E-03     104.633E-03    -58.0553E-03    -58.1851E-03
            4720               1     107.483E-03     107.496E-03    -57.9092E-03    -58.1167E-03
            4721               1     110.409E-03     110.172E-03    -57.5289E-03    -57.5832E-03
            4722               1     114.116E-03     113.917E-03    -57.0903E-03    -57.2049E-03
            4723               1     117.349E-03     117.000E-03    -56.1014E-03    -56.1214E-03
            4724               1     121.625E-03     121.321E-03    -55.2323E-03    -55.3077E-03
            4725               1     124.787E-03     124.393E-03    -53.4071E-03    -53.4212E-03
            4726               1     129.153E-03     128.787E-03    -51.8623E-03    -51.9226E-03
            4727               1     131.692E-03     131.297E-03    -48.8015E-03    -48.8308E-03
            4728               1     135.150E-03     134.719E-03    -46.1461E-03    -46.1796E-03
            4729               1     136.289E-03     135.885E-03    -41.3429E-03    -41.3822E-03
            4730               1     136.797E-03     136.258E-03    -36.9199E-03    -36.8554E-03
            4731               1     135.344E-03     134.773E-03    -30.0825E-03    -30.0078E-03
            4732               1     129.205E-03     128.543E-03    -23.2514E-03    -22.8928E-03
            4733               1     122.683E-03     121.752E-03    -14.4954E-03    -13.7200E-03
            4734               1     98.4701E-03     100.743E-03    -5.07970E-03    -4.40841E-03
            4735               1     104.419E-03     104.614E-03    -60.2809E-03    -60.3792E-03
            4736               1     105.187E-03     105.507E-03    -60.3865E-03    -60.7060E-03
            4737               1     107.451E-03     107.207E-03    -60.9333E-03    -60.9737E-03
            4738               1     109.447E-03     109.247E-03    -60.8517E-03    -60.9905E-03
            4739               1     111.813E-03     111.397E-03    -60.6537E-03    -60.6770E-03
            4740               1     114.625E-03     114.203E-03    -60.2944E-03    -60.3595E-03
            4741               1     117.129E-03     116.596E-03    -59.4376E-03    -59.4473E-03
            4742               1     120.387E-03     119.844E-03    -58.6530E-03    -58.6885E-03
            4743               1     122.688E-03     122.067E-03    -56.9650E-03    -56.9697E-03
            4744               1     125.868E-03     125.250E-03    -55.5016E-03    -55.5265E-03
            4745               1     127.365E-03     126.688E-03    -52.6263E-03    -52.6352E-03
            4746               1     129.603E-03     128.940E-03    -50.0468E-03    -50.0653E-03
            4747               1     129.454E-03     128.751E-03    -45.4991E-03    -45.5168E-03
            4748               1     129.292E-03     128.584E-03    -41.1108E-03    -41.1102E-03
            4749               1     126.409E-03     125.630E-03    -34.4585E-03    -34.4613E-03
            4750               1     121.606E-03     120.706E-03    -27.2991E-03    -27.2313E-03
            4751               1     114.465E-03     113.192E-03    -18.4017E-03    -18.2533E-03
            4752               1     101.498E-03     99.6165E-03    -6.85939E-03    -6.51592E-03
            4753               1     87.5559E-03     83.7461E-03     4.17618E-03     5.64372E-03
            4754               1     82.5653E-03     82.9282E-03    -47.5743E-03    -47.6803E-03
            4755               1     82.5994E-03     82.8029E-03    -47.4705E-03    -47.4513E-03
            4756               1     81.9916E-03     82.3137E-03    -46.9154E-03    -46.9135E-03
            4757               1     82.4669E-03     82.8414E-03    -46.8856E-03    -46.8562E-03
            4758               1     82.5312E-03     83.0430E-03    -46.5075E-03    -46.4950E-03
            4759               1     83.6781E-03     84.2894E-03    -46.6562E-03    -46.6359E-03
            4760               1     84.4232E-03     85.1688E-03    -46.4442E-03    -46.4400E-03
            4761               1     86.2182E-03     87.0569E-03    -46.7654E-03    -46.7521E-03
            4762               1     87.4660E-03     88.4313E-03    -46.6067E-03    -46.6134E-03
            4763               1     89.8314E-03     90.8645E-03    -47.0520E-03    -47.0351E-03
            4764               1     91.3725E-03     92.5438E-03    -46.7350E-03    -46.7570E-03
            4765               1     94.4141E-03     95.6217E-03    -47.2651E-03    -47.2261E-03
            4766               1     96.2795E-03     97.6777E-03    -46.4510E-03    -46.5034E-03
            4767               1     100.838E-03     102.232E-03    -47.2060E-03    -47.0980E-03
            4768               1     104.101E-03     105.818E-03    -45.3889E-03    -45.5095E-03
            4769               1     113.283E-03     114.951E-03    -47.3289E-03    -47.0071E-03
            4770               1     123.213E-03     125.537E-03    -43.6013E-03    -43.8515E-03
            4771               1     147.765E-03     150.151E-03    -51.5695E-03    -50.5481E-03
            4772               1     212.531E-03     217.302E-03    -39.5870E-03    -39.2473E-03
            4773               1     85.2099E-03     85.2176E-03    -49.1115E-03    -49.0420E-03
            4774               1     84.0748E-03     84.4619E-03    -48.3430E-03    -48.4512E-03
            4775               1     84.3811E-03     84.4902E-03    -48.3179E-03    -48.2263E-03
            4776               1     84.1373E-03     84.4604E-03    -47.8715E-03    -47.8539E-03
            4777               1     85.0197E-03     85.3462E-03    -47.9695E-03    -47.9025E-03
            4778               1     85.5624E-03     86.0589E-03    -47.7452E-03    -47.7247E-03
            4779               1     87.1179E-03     87.6732E-03    -48.0242E-03    -47.9864E-03
            4780               1     88.3263E-03     89.0290E-03    -47.9524E-03    -47.9535E-03
            4781               1     90.4863E-03     91.2222E-03    -48.4067E-03    -48.3769E-03
            4782               1     92.1869E-03     93.0813E-03    -48.3600E-03    -48.3880E-03
            4783               1     94.8905E-03     95.7555E-03    -48.9562E-03    -48.9064E-03
            4784               1     97.0491E-03     98.1281E-03    -48.7261E-03    -48.7915E-03
            4785               1     100.482E-03     101.441E-03    -49.4348E-03    -49.3213E-03
            4786               1     103.748E-03     105.014E-03    -48.7016E-03    -48.8220E-03
            4787               1     108.852E-03     109.894E-03    -49.5624E-03    -49.2908E-03
            4788               1     116.779E-03     118.126E-03    -47.9413E-03    -48.0942E-03
            4789               1     125.680E-03     126.832E-03    -48.4297E-03    -47.8427E-03
            4790               1     158.350E-03     158.734E-03    -45.6819E-03    -45.3969E-03
            4791               1     165.192E-03     163.809E-03    -12.7497E-03    -13.6031E-03
            4792               1     86.8539E-03     87.3789E-03    -50.0768E-03    -50.3208E-03
            4793               1     86.6569E-03     86.5853E-03    -49.8502E-03    -49.7261E-03
            4794               1     85.7574E-03     86.0006E-03    -49.1291E-03    -49.1432E-03
            4795               1     86.2864E-03     86.3814E-03    -49.1285E-03    -49.0196E-03
            4796               1     86.4986E-03     86.8139E-03    -48.8207E-03    -48.7947E-03
            4797               1     87.7669E-03     88.0873E-03    -49.0231E-03    -48.9611E-03
            4798               1     88.8531E-03     89.3350E-03    -48.9769E-03    -48.9682E-03
            4799               1     90.7895E-03     91.2882E-03    -49.3767E-03    -49.3403E-03
            4800               1     92.5666E-03     93.2154E-03    -49.4890E-03    -49.5096E-03
            4801               1     95.0289E-03     95.6437E-03    -50.0501E-03    -50.0077E-03
            4802               1     97.4023E-03     98.2040E-03    -50.1890E-03    -50.2465E-03
            4803               1     100.217E-03     100.906E-03    -50.7827E-03    -50.7026E-03
            4804               1     103.413E-03     104.349E-03    -50.7035E-03    -50.8102E-03
            4805               1     106.379E-03     107.141E-03    -50.9046E-03    -50.7526E-03
            4806               1     111.911E-03     112.866E-03    -50.1316E-03    -50.2803E-03
            4807               1     114.523E-03     115.449E-03    -48.1758E-03    -47.9753E-03
            4808               1     129.052E-03     129.420E-03    -45.6585E-03    -45.6779E-03
            4809               1     129.383E-03     130.148E-03    -28.1079E-03    -28.8559E-03
            4810               1     132.375E-03     134.640E-03    -10.8018E-03    -10.9151E-03
            4811               1     90.3847E-03     90.1887E-03    -52.1375E-03    -51.9937E-03
            4812               1     88.0794E-03     88.1971E-03    -50.6946E-03    -50.6980E-03
            4813               1     87.9673E-03     87.8572E-03    -50.4260E-03    -50.2711E-03
            4814               1     87.5271E-03     87.7189E-03    -49.8514E-03    -49.8315E-03
            4815               1     88.3844E-03     88.5124E-03    -49.9119E-03    -49.8285E-03
            4816               1     89.1635E-03     89.4802E-03    -49.7878E-03    -49.7780E-03
            4817               1     90.7945E-03     91.1037E-03    -50.0760E-03    -50.0379E-03
            4818               1     92.4739E-03     92.9187E-03    -50.2226E-03    -50.2360E-03
            4819               1     94.6804E-03     95.0987E-03    -50.6790E-03    -50.6495E-03
            4820               1     97.0889E-03     97.6516E-03    -50.9808E-03    -51.0245E-03
            4821               1     99.5769E-03     100.062E-03    -51.4628E-03    -51.4162E-03
            4822               1     102.690E-03     103.351E-03    -51.7434E-03    -51.8246E-03
            4823               1     104.819E-03     105.389E-03    -51.7414E-03    -51.6755E-03
            4824               1     108.902E-03     109.593E-03    -51.5087E-03    -51.6294E-03
            4825               1     109.207E-03     109.998E-03    -49.3179E-03    -49.3107E-03
            4826               1     115.442E-03     115.919E-03    -47.1558E-03    -47.2682E-03
            4827               1     111.725E-03     112.892E-03    -36.5736E-03    -37.0928E-03
            4828               1     113.246E-03     114.248E-03    -26.1309E-03    -26.2511E-03
            4829               1     113.794E-03     113.689E-03    -7.06449E-03    -7.65125E-03
            4830               1     91.8435E-03     91.4178E-03    -52.9995E-03    -52.7360E-03
            4831               1     90.5604E-03     90.2744E-03    -52.1561E-03    -51.9500E-03
            4832               1     89.0670E-03     89.0908E-03    -51.0849E-03    -51.0284E-03
            4833               1     89.2907E-03     89.2693E-03    -50.8831E-03    -50.7834E-03
            4834               1     89.5179E-03     89.7128E-03    -50.5488E-03    -50.5432E-03
            4835               1     90.7267E-03     90.8957E-03    -50.6691E-03    -50.6385E-03
            4836               1     92.1150E-03     92.4026E-03    -50.7411E-03    -50.7546E-03
            4837               1     93.9802E-03     94.2432E-03    -51.0379E-03    -51.0254E-03
            4838               1     96.2124E-03     96.5780E-03    -51.3364E-03    -51.3714E-03
            4839               1     98.4293E-03     98.7402E-03    -51.6775E-03    -51.6564E-03
            4840               1     101.358E-03     101.791E-03    -52.0697E-03    -52.1314E-03
            4841               1     103.290E-03     103.661E-03    -52.0535E-03    -52.0248E-03
            4842               1     106.702E-03     107.169E-03    -52.1792E-03    -52.2702E-03
            4843               1     106.761E-03     107.321E-03    -50.5165E-03    -50.5527E-03
            4844               1     109.883E-03     110.315E-03    -49.1440E-03    -49.2640E-03
            4845               1     105.272E-03     106.264E-03    -42.3378E-03    -42.6845E-03
            4846               1     103.999E-03     104.623E-03    -35.6628E-03    -35.8456E-03
            4847               1     97.6008E-03     98.3502E-03    -21.3448E-03    -21.9394E-03
            4848               1     93.4803E-03     94.8431E-03    -6.46721E-03    -6.72433E-03
            4849               1     94.1405E-03     93.5854E-03    -54.3329E-03    -53.9993E-03
            4850               1     91.4466E-03     91.2060E-03    -52.6967E-03    -52.5324E-03
            4851               1     90.7956E-03     90.6448E-03    -52.1098E-03    -51.9829E-03
            4852               1     90.2099E-03     90.3119E-03    -51.4253E-03    -51.4234E-03
            4853               1     90.8906E-03     90.9712E-03    -51.3332E-03    -51.3215E-03
            4854               1     91.8226E-03     91.9992E-03    -51.2500E-03    -51.2733E-03
            4855               1     93.2491E-03     93.4006E-03    -51.3530E-03    -51.3663E-03
            4856               1     95.1241E-03     95.3324E-03    -51.5437E-03    -51.5778E-03
            4857               1     96.9771E-03     97.1436E-03    -51.6955E-03    -51.7000E-03
            4858               1     99.5551E-03     99.7922E-03    -52.0139E-03    -52.0637E-03
            4859               1     101.360E-03     101.544E-03    -51.9458E-03    -51.9387E-03
            4860               1     104.349E-03     104.602E-03    -52.1744E-03    -52.2402E-03
            4861               1     104.909E-03     105.194E-03    -51.0766E-03    -51.1011E-03
            4862               1     107.261E-03     107.512E-03    -50.4558E-03    -50.5306E-03
            4863               1     103.855E-03     104.489E-03    -46.1789E-03    -46.3958E-03
            4864               1     101.958E-03     102.326E-03    -42.2431E-03    -42.3593E-03
            4865               1     92.6771E-03     93.6493E-03    -32.0294E-03    -32.5353E-03
            4866               1     84.1113E-03     84.9106E-03    -21.2340E-03    -21.4594E-03
            4867               1     77.7699E-03     78.1255E-03    -5.39879E-03    -5.81254E-03
            4868               1     94.6431E-03     94.1630E-03    -54.6142E-03    -54.3371E-03
            4869               1     92.9616E-03     92.7127E-03    -53.5944E-03    -53.4367E-03
            4870               1     91.3954E-03     91.4364E-03    -52.4844E-03    -52.4879E-03
            4871               1     91.4987E-03     91.5687E-03    -52.1728E-03    -52.2037E-03
            4872               1     91.9067E-03     92.0112E-03    -51.9108E-03    -51.9496E-03
            4873               1     92.8386E-03     92.9359E-03    -51.8155E-03    -51.8702E-03
            4874               1     94.2618E-03     94.3492E-03    -51.8640E-03    -51.9037E-03
            4875               1     95.6405E-03     95.6988E-03    -51.8015E-03    -51.8364E-03
            4876               1     97.7203E-03     97.7944E-03    -51.9508E-03    -51.9963E-03
            4877               1     99.2120E-03     99.2365E-03    -51.7346E-03    -51.7475E-03
            4878               1     101.693E-03     101.756E-03    -51.8389E-03    -51.8932E-03
            4879               1     102.569E-03     102.604E-03    -51.0167E-03    -51.0274E-03
            4880               1     104.676E-03     104.720E-03    -50.6867E-03    -50.7390E-03
            4881               1     103.134E-03     103.310E-03    -48.1032E-03    -48.1811E-03
            4882               1     102.262E-03     102.353E-03    -46.0992E-03    -46.1317E-03
            4883               1     94.6925E-03     95.3058E-03    -39.4976E-03    -39.7967E-03
            4884               1     85.9070E-03     86.2990E-03    -32.6884E-03    -32.8083E-03
            4885               1     71.7326E-03     72.5715E-03    -19.9621E-03    -20.3708E-03
            4886               1     60.5071E-03     61.2649E-03    -5.43599E-03    -5.78090E-03
            4887               1     95.8208E-03     95.4417E-03    -55.2725E-03    -55.0629E-03
            4888               1     92.8936E-03     93.0761E-03    -53.5713E-03    -53.6806E-03
            4889               1     92.5586E-03     92.7130E-03    -53.1597E-03    -53.2649E-03
            4890               1     92.5227E-03     92.6167E-03    -52.7793E-03    -52.8519E-03
            4891               1     92.9964E-03     93.1078E-03    -52.5307E-03    -52.6462E-03
            4892               1     93.9950E-03     93.9971E-03    -52.4717E-03    -52.5218E-03
            4893               1     94.8622E-03     94.8557E-03    -52.2152E-03    -52.2873E-03
            4894               1     96.3993E-03     96.3390E-03    -52.1940E-03    -52.2383E-03
            4895               1     97.4010E-03     97.3013E-03    -51.7814E-03    -51.8171E-03
            4896               1     99.2476E-03     99.1439E-03    -51.6655E-03    -51.7132E-03
            4897               1     99.9660E-03     99.8104E-03    -50.8366E-03    -50.8519E-03
            4898               1     101.639E-03     101.490E-03    -50.4159E-03    -50.4610E-03
            4899               1     101.106E-03     100.945E-03    -48.6049E-03    -48.6219E-03
            4900               1     101.067E-03     100.882E-03    -47.3284E-03    -47.3376E-03
            4901               1     97.0428E-03     96.9883E-03    -43.4226E-03    -43.4794E-03
            4902               1     91.4477E-03     91.3473E-03    -39.9821E-03    -39.8906E-03
            4903               1     78.2548E-03     78.8807E-03    -31.3377E-03    -31.6338E-03
            4904               1     61.7939E-03     62.0566E-03    -21.3747E-03    -21.4753E-03
            4905               1     43.6778E-03     44.5021E-03    -5.38832E-03    -5.54912E-03
            4906               1     94.3027E-03     94.9750E-03    -54.3766E-03    -54.7715E-03
            4907               1     93.8295E-03     94.2466E-03    -54.1146E-03    -54.3743E-03
            4908               1     93.6554E-03     93.8190E-03    -53.8085E-03    -53.9414E-03
            4909               1     93.7877E-03     93.9982E-03    -53.4960E-03    -53.6991E-03
            4910               1     94.5308E-03     94.4764E-03    -53.4352E-03    -53.4946E-03
            4911               1     94.9430E-03     94.9176E-03    -53.0445E-03    -53.1591E-03
            4912               1     96.0206E-03     95.8520E-03    -52.9210E-03    -52.9621E-03
            4913               1     96.4968E-03     96.3077E-03    -52.3411E-03    -52.3981E-03
            4914               1     97.7100E-03     97.4651E-03    -52.0367E-03    -52.0769E-03
            4915               1     97.9616E-03     97.6633E-03    -51.0831E-03    -51.1087E-03
            4916               1     98.9881E-03     98.6771E-03    -50.4438E-03    -50.4858E-03
            4917               1     98.4810E-03     98.1045E-03    -48.8070E-03    -48.8144E-03
            4918               1     98.4428E-03     98.0568E-03    -47.5319E-03    -47.5573E-03
            4919               1     96.0972E-03     95.6395E-03    -44.7378E-03    -44.7122E-03
            4920               1     92.8082E-03     92.3482E-03    -42.2924E-03    -42.2346E-03
            4921               1     86.0162E-03     85.4912E-03    -37.5448E-03    -37.4276E-03
            4922               1     74.5818E-03     74.1175E-03    -32.9835E-03    -32.6549E-03
            4923               1     52.2890E-03     53.1031E-03    -21.4685E-03    -21.6554E-03
            4924               1     27.0281E-03     26.8804E-03    -6.22285E-03    -6.56530E-03
            4925               1     94.9364E-03     95.7696E-03    -54.7969E-03    -55.2575E-03
            4926               1     95.2445E-03     95.5541E-03    -54.9367E-03    -55.1448E-03
            4927               1     95.1843E-03     95.5244E-03    -54.6675E-03    -54.9506E-03
            4928               1     95.9097E-03     95.8234E-03    -54.7404E-03    -54.8025E-03
            4929               1     95.9906E-03     95.9615E-03    -54.2994E-03    -54.4408E-03
            4930               1     96.7668E-03     96.5150E-03    -54.1642E-03    -54.1959E-03
            4931               1     96.8279E-03     96.5730E-03    -53.5013E-03    -53.5679E-03
            4932               1     97.5553E-03     97.1966E-03    -53.1108E-03    -53.1381E-03
            4933               1     97.3301E-03     96.9255E-03    -52.0682E-03    -52.0985E-03
            4934               1     97.7500E-03     97.3027E-03    -51.2888E-03    -51.3187E-03
            4935               1     96.8190E-03     96.3026E-03    -49.6288E-03    -49.6416E-03
            4936               1     96.3279E-03     95.7903E-03    -48.2112E-03    -48.2391E-03
            4937               1     94.0237E-03     93.3929E-03    -45.6416E-03    -45.6315E-03
            4938               1     91.3282E-03     90.6696E-03    -43.2105E-03    -43.2069E-03
            4939               1     86.5282E-03     85.6797E-03    -39.5040E-03    -39.4000E-03
            4940               1     78.9626E-03     78.0863E-03    -35.6490E-03    -35.5044E-03
            4941               1     69.0327E-03     67.7059E-03    -30.5704E-03    -30.1474E-03
            4942               1     50.1277E-03     48.5643E-03    -24.9735E-03    -24.1258E-03
            4943               1     11.8516E-03     12.2835E-03    -6.71935E-03    -6.57691E-03
            4944               1     97.5676E-03     97.8021E-03    -56.3259E-03    -56.4201E-03
            4945               1     97.2116E-03     97.5272E-03    -56.0537E-03    -56.2907E-03
            4946               1     98.0643E-03     97.9092E-03    -56.3369E-03    -56.3529E-03
            4947               1     97.9181E-03     97.8121E-03    -55.9081E-03    -56.0076E-03
            4948               1     98.5052E-03     98.1890E-03    -55.8099E-03    -55.8182E-03
            4949               1     98.3348E-03     98.0011E-03    -55.1638E-03    -55.2059E-03
            4950               1     98.7761E-03     98.3369E-03    -54.7862E-03    -54.7947E-03
            4951               1     98.2926E-03     97.8020E-03    -53.7751E-03    -53.7931E-03
            4952               1     98.3676E-03     97.8175E-03    -53.0153E-03    -53.0254E-03
            4953               1     97.1320E-03     96.5140E-03    -51.4092E-03    -51.4171E-03
            4954               1     96.3034E-03     95.6511E-03    -50.0191E-03    -50.0311E-03
            4955               1     93.6610E-03     92.9264E-03    -47.5245E-03    -47.5253E-03
            4956               1     90.9260E-03     90.1727E-03    -45.1109E-03    -45.1218E-03
            4957               1     85.9427E-03     85.0569E-03    -41.4656E-03    -41.4401E-03
            4958               1     79.5319E-03     78.6316E-03    -37.5146E-03    -37.5117E-03
            4959               1     70.8520E-03     69.6067E-03    -32.7339E-03    -32.5912E-03
            4960               1     57.2410E-03     55.9384E-03    -26.6140E-03    -26.5311E-03
            4961               1     43.2819E-03     41.0656E-03    -21.7284E-03    -21.0922E-03
            4962               1     26.1271E-03     28.5812E-03    -11.0174E-03    -9.70118E-03
            4963               1     81.7746E-03     81.6063E-03    -47.1945E-03    -47.0908E-03
            4964               1     80.1538E-03     80.3250E-03    -46.2651E-03    -46.3438E-03
            4965               1     80.4920E-03     80.5487E-03    -46.4706E-03    -46.4456E-03
            4966               1     80.1254E-03     80.2943E-03    -46.2603E-03    -46.2719E-03
            4967               1     80.2729E-03     80.4828E-03    -46.3406E-03    -46.3425E-03
            4968               1     80.1989E-03     80.4606E-03    -46.2876E-03    -46.2904E-03
            4969               1     80.2535E-03     80.5725E-03    -46.3016E-03    -46.3057E-03
            4970               1     80.3146E-03     80.6791E-03    -46.3148E-03    -46.3161E-03
            4971               1     80.3153E-03     80.7423E-03    -46.2848E-03    -46.2907E-03
            4972               1     80.5349E-03     80.9976E-03    -46.3793E-03    -46.3781E-03
            4973               1     80.4270E-03     80.9647E-03    -46.2713E-03    -46.2810E-03
            4974               1     80.9884E-03     81.5377E-03    -46.5589E-03    -46.5521E-03
            4975               1     80.5767E-03     81.2309E-03    -46.2531E-03    -46.2706E-03
            4976               1     82.0196E-03     82.6273E-03    -47.0691E-03    -47.0515E-03
            4977               1     80.5803E-03     81.3773E-03    -46.1344E-03    -46.1835E-03
            4978               1     83.6231E-03     84.0757E-03    -47.9622E-03    -47.8306E-03
            4979               1     76.2409E-03     77.6640E-03    -43.2665E-03    -43.5937E-03
            4980               1     78.5142E-03     79.1313E-03    -43.8185E-03    -43.3146E-03
            4981               1     86.0154E-03     90.4406E-03    -26.7108E-03    -26.1900E-03
            4982               1     80.4346E-03     80.4933E-03    -46.4277E-03    -46.4713E-03
            4983               1     80.8679E-03     80.8148E-03    -46.6889E-03    -46.6483E-03
            4984               1     80.7338E-03     80.7947E-03    -46.6102E-03    -46.6277E-03
            4985               1     80.8948E-03     80.9745E-03    -46.6922E-03    -46.7081E-03
            4986               1     80.8742E-03     80.9384E-03    -46.6681E-03    -46.6654E-03
            4987               1     80.9260E-03     81.0421E-03    -46.6750E-03    -46.6908E-03
            4988               1     80.9694E-03     81.0749E-03    -46.6755E-03    -46.6754E-03
            4989               1     81.0148E-03     81.1635E-03    -46.6660E-03    -46.6799E-03
            4990               1     81.1178E-03     81.2599E-03    -46.6905E-03    -46.6910E-03
            4991               1     81.1553E-03     81.3419E-03    -46.6602E-03    -46.6751E-03
            4992               1     81.3465E-03     81.5187E-03    -46.7318E-03    -46.7298E-03
            4993               1     81.3432E-03     81.5729E-03    -46.6497E-03    -46.6680E-03
            4994               1     81.7311E-03     81.9306E-03    -46.8522E-03    -46.8479E-03
            4995               1     81.6860E-03     81.9544E-03    -46.6814E-03    -46.7000E-03
            4996               1     82.8437E-03     83.0614E-03    -47.4265E-03    -47.4162E-03
            4997               1     83.2637E-03     83.6257E-03    -47.3631E-03    -47.4399E-03
            4998               1     86.1883E-03     86.0767E-03    -49.4183E-03    -49.2003E-03
            4999               1     79.7451E-03     80.5459E-03    -44.0893E-03    -44.2996E-03
            5000               1     44.9365E-03     44.4169E-03    -14.9300E-03    -15.9568E-03
            5001               1     80.8076E-03     80.9198E-03    -46.6502E-03    -46.7184E-03
            5002               1     81.3207E-03     81.2155E-03    -46.9452E-03    -46.8897E-03
            5003               1     81.2602E-03     81.2905E-03    -46.8915E-03    -46.9292E-03
            5004               1     81.5014E-03     81.4410E-03    -47.0184E-03    -47.0089E-03
            5005               1     81.4895E-03     81.4569E-03    -46.9827E-03    -47.0011E-03
            5006               1     81.5933E-03     81.5112E-03    -47.0156E-03    -47.0133E-03
            5007               1     81.6368E-03     81.5671E-03    -47.0009E-03    -47.0164E-03
            5008               1     81.7094E-03     81.5987E-03    -47.0038E-03    -47.0040E-03
            5009               1     81.8088E-03     81.7037E-03    -47.0078E-03    -47.0217E-03
            5010               1     81.8382E-03     81.6965E-03    -46.9781E-03    -46.9785E-03
            5011               1     82.0239E-03     81.8869E-03    -47.0109E-03    -47.0258E-03
            5012               1     81.9196E-03     81.7446E-03    -46.9088E-03    -46.9067E-03
            5013               1     82.3241E-03     82.1589E-03    -47.0232E-03    -47.0428E-03
            5014               1     81.9008E-03     81.6886E-03    -46.7776E-03    -46.7677E-03
            5015               1     83.2658E-03     83.0362E-03    -47.3086E-03    -47.3241E-03
            5016               1     82.4136E-03     82.3471E-03    -46.9603E-03    -47.0236E-03
            5017               1     86.8623E-03     86.0746E-03    -48.7659E-03    -48.5653E-03
            5018               1     72.6820E-03     73.1912E-03    -41.3633E-03    -41.6964E-03
            5019               1     26.3847E-03     27.5510E-03    -14.8542E-03    -15.6908E-03
            5020               1     82.8822E-03     82.7646E-03    -47.8396E-03    -47.7580E-03
            5021               1     81.6036E-03     81.7037E-03    -47.0756E-03    -47.1650E-03
            5022               1     82.1508E-03     81.9945E-03    -47.3761E-03    -47.3383E-03
            5023               1     81.9236E-03     81.8075E-03    -47.2127E-03    -47.2312E-03
            5024               1     82.1801E-03     81.9784E-03    -47.3305E-03    -47.3250E-03
            5025               1     82.1774E-03     81.9464E-03    -47.2865E-03    -47.2952E-03
            5026               1     82.2945E-03     81.9997E-03    -47.3104E-03    -47.3096E-03
            5027               1     82.3922E-03     82.0568E-03    -47.3130E-03    -47.3188E-03
            5028               1     82.4129E-03     82.0228E-03    -47.2700E-03    -47.2715E-03
            5029               1     82.6260E-03     82.1879E-03    -47.3263E-03    -47.3300E-03
            5030               1     82.4555E-03     81.9732E-03    -47.1653E-03    -47.1694E-03
            5031               1     82.9196E-03     82.3767E-03    -47.3487E-03    -47.3489E-03
            5032               1     82.2296E-03     81.6617E-03    -46.8888E-03    -46.8972E-03
            5033               1     83.3801E-03     82.7185E-03    -47.4297E-03    -47.4217E-03
            5034               1     81.0737E-03     80.4566E-03    -46.0478E-03    -46.0830E-03
            5035               1     83.4790E-03     82.4830E-03    -47.1910E-03    -47.0788E-03
            5036               1     72.8725E-03     72.7340E-03    -41.1649E-03    -41.5021E-03
            5037               1     69.2300E-03     68.1668E-03    -39.5933E-03    -39.1618E-03
            5038               1     53.8710E-03     57.2812E-03    -21.7624E-03    -21.2203E-03
            5039               1     509.955E-06     641.391E-06    -273.000E-06    -349.892E-06
            5040               1     563.019E-06     623.923E-06    -321.376E-06    -345.042E-06
            5041               1     570.790E-06     600.470E-06    -328.811E-06    -330.457E-06
            5042               1     577.904E-06     620.778E-06    -333.624E-06    -337.284E-06
            5043               1     577.410E-06     623.602E-06    -333.056E-06    -334.177E-06
            5044               1     583.029E-06     638.953E-06    -335.095E-06    -336.963E-06
            5045               1     586.151E-06     648.848E-06    -334.767E-06    -336.719E-06
            5046               1     593.648E-06     662.937E-06    -336.117E-06    -338.099E-06
            5047               1     601.436E-06     675.844E-06    -336.689E-06    -338.797E-06
            5048               1     612.204E-06     691.046E-06    -338.392E-06    -340.191E-06
            5049               1     623.441E-06     706.100E-06    -339.405E-06    -341.724E-06
            5050               1     637.423E-06     722.536E-06    -341.856E-06    -343.356E-06
            5051               1     650.611E-06     738.421E-06    -342.612E-06    -345.355E-06
            5052               1     666.048E-06     754.866E-06    -345.168E-06    -346.245E-06
            5053               1     677.856E-06     768.885E-06    -342.677E-06    -346.392E-06
            5054               1     692.190E-06     784.161E-06    -342.693E-06    -342.971E-06
            5055               1     699.535E-06     795.236E-06    -326.794E-06    -332.929E-06
            5056               1     726.712E-06     825.405E-06    -323.872E-06    -318.814E-06
            5057               1     767.881E-06     877.938E-06    -272.377E-06    -281.716E-06
            5058               1     627.347E-06     632.274E-06    -360.462E-06    -364.304E-06
            5059               1     577.755E-06     626.540E-06    -332.117E-06    -355.475E-06
            5060               1     589.599E-06     631.712E-06    -340.381E-06    -354.000E-06
            5061               1     595.114E-06     623.361E-06    -343.158E-06    -345.992E-06
            5062               1     598.492E-06     638.010E-06    -343.867E-06    -349.119E-06
            5063               1     601.700E-06     644.539E-06    -343.668E-06    -348.392E-06
            5064               1     607.624E-06     656.658E-06    -344.061E-06    -349.481E-06
            5065               1     614.810E-06     667.507E-06    -344.482E-06    -349.801E-06
            5066               1     624.467E-06     680.641E-06    -345.540E-06    -350.650E-06
            5067               1     634.652E-06     694.692E-06    -346.108E-06    -351.932E-06
            5068               1     648.537E-06     709.141E-06    -348.461E-06    -352.857E-06
            5069               1     660.923E-06     726.335E-06    -348.988E-06    -355.641E-06
            5070               1     678.794E-06     741.564E-06    -353.133E-06    -356.619E-06
            5071               1     692.675E-06     761.712E-06    -353.315E-06    -361.346E-06
            5072               1     712.369E-06     776.081E-06    -358.821E-06    -361.349E-06
            5073               1     727.820E-06     799.512E-06    -356.398E-06    -366.716E-06
            5074               1     743.715E-06     810.461E-06    -358.925E-06    -359.962E-06
            5075               1     773.171E-06     844.838E-06    -343.014E-06    -355.320E-06
            5076               1     795.843E-06     864.596E-06    -331.519E-06    -320.690E-06
            5077               1     667.507E-06     538.448E-06    -385.206E-06    -309.698E-06
            5078               1     651.260E-06     618.069E-06    -375.520E-06    -355.593E-06
            5079               1     615.662E-06     628.944E-06    -354.478E-06    -357.973E-06
            5080               1     619.825E-06     640.333E-06    -356.060E-06    -360.209E-06
            5081               1     618.950E-06     646.252E-06    -353.437E-06    -360.501E-06
            5082               1     622.754E-06     654.235E-06    -352.642E-06    -360.390E-06
            5083               1     630.116E-06     662.493E-06    -353.307E-06    -360.304E-06
            5084               1     637.590E-06     672.813E-06    -353.132E-06    -360.525E-06
            5085               1     647.320E-06     684.581E-06    -353.631E-06    -361.185E-06
            5086               1     659.363E-06     696.767E-06    -354.893E-06    -361.475E-06
            5087               1     671.032E-06     712.493E-06    -355.100E-06    -363.563E-06
            5088               1     688.071E-06     726.256E-06    -358.472E-06    -363.975E-06
            5089               1     702.368E-06     747.224E-06    -359.045E-06    -368.813E-06
            5090               1     724.282E-06     762.321E-06    -365.309E-06    -369.557E-06
            5091               1     743.588E-06     790.872E-06    -367.580E-06    -379.006E-06
            5092               1     764.916E-06     804.023E-06    -374.286E-06    -377.638E-06
            5093               1     794.628E-06     841.376E-06    -377.239E-06    -389.482E-06
            5094               1     782.822E-06     834.545E-06    -359.296E-06    -367.239E-06
            5095               1     846.883E-06     870.362E-06    -338.719E-06    -345.095E-06
            5096               1     656.967E-06     641.046E-06    -379.283E-06    -369.844E-06
            5097               1     660.232E-06     592.515E-06    -380.535E-06    -340.954E-06
            5098               1     661.800E-06     637.474E-06    -380.252E-06    -365.160E-06
            5099               1     636.729E-06     654.517E-06    -363.457E-06    -372.978E-06
            5100               1     641.105E-06     656.566E-06    -363.065E-06    -371.148E-06
            5101               1     647.529E-06     662.655E-06    -363.211E-06    -370.936E-06
            5102               1     652.805E-06     669.355E-06    -361.902E-06    -370.425E-06
            5103               1     662.549E-06     678.137E-06    -362.598E-06    -370.375E-06
            5104               1     672.032E-06     687.536E-06    -362.474E-06    -370.123E-06
            5105               1     682.894E-06     700.109E-06    -362.419E-06    -371.048E-06
            5106               1     697.028E-06     711.245E-06    -363.957E-06    -370.595E-06
            5107               1     709.830E-06     728.858E-06    -363.673E-06    -373.436E-06
            5108               1     729.184E-06     741.927E-06    -367.587E-06    -372.990E-06
            5109               1     746.483E-06     767.083E-06    -368.677E-06    -379.639E-06
            5110               1     769.604E-06     781.742E-06    -374.602E-06    -378.862E-06
            5111               1     795.472E-06     815.784E-06    -379.489E-06    -390.574E-06
            5112               1     803.182E-06     821.223E-06    -374.546E-06    -381.111E-06
            5113               1     829.916E-06     844.131E-06    -376.591E-06    -383.342E-06
            5114               1     720.165E-06     778.800E-06    -273.757E-06    -314.379E-06
            5115               1     702.406E-06     570.258E-06    -404.846E-06    -329.189E-06
            5116               1     687.230E-06     657.878E-06    -396.085E-06    -378.115E-06
            5117               1     652.707E-06     663.367E-06    -372.745E-06    -381.977E-06
            5118               1     662.197E-06     664.641E-06    -374.952E-06    -381.820E-06
            5119               1     665.872E-06     667.342E-06    -373.509E-06    -380.915E-06
            5120               1     670.740E-06     671.129E-06    -372.152E-06    -380.375E-06
            5121               1     680.254E-06     676.543E-06    -372.846E-06    -379.612E-06
            5122               1     687.725E-06     683.207E-06    -371.799E-06    -379.173E-06
            5123               1     697.954E-06     692.127E-06    -371.670E-06    -379.103E-06
            5124               1     709.029E-06     700.326E-06    -371.563E-06    -378.105E-06
            5125               1     720.012E-06     713.179E-06    -370.551E-06    -378.950E-06
            5126               1     734.858E-06     722.442E-06    -371.582E-06    -377.078E-06
            5127               1     747.752E-06     740.561E-06    -370.168E-06    -379.598E-06
            5128               1     766.261E-06     750.957E-06    -372.202E-06    -376.510E-06
            5129               1     783.114E-06     775.022E-06    -371.569E-06    -381.397E-06
            5130               1     799.231E-06     783.481E-06    -370.131E-06    -374.008E-06
            5131               1     813.112E-06     802.028E-06    -368.950E-06    -376.511E-06
            5132               1     787.415E-06     780.601E-06    -335.315E-06    -345.846E-06
            5133               1     705.620E-06     710.005E-06    -303.578E-06    -306.058E-06
            5134               1     698.722E-06     722.439E-06    -401.431E-06    -413.628E-06
            5135               1     646.181E-06     701.607E-06    -366.643E-06    -404.684E-06
            5136               1     669.380E-06     689.599E-06    -378.428E-06    -398.127E-06
            5137               1     683.598E-06     673.278E-06    -383.318E-06    -388.134E-06
            5138               1     690.923E-06     678.840E-06    -383.470E-06    -390.265E-06
            5139               1     699.592E-06     679.496E-06    -383.834E-06    -388.280E-06
            5140               1     706.841E-06     684.560E-06    -382.952E-06    -388.482E-06
            5141               1     716.290E-06     689.818E-06    -382.666E-06    -387.715E-06
            5142               1     725.492E-06     695.657E-06    -381.768E-06    -386.802E-06
            5143               1     735.340E-06     704.047E-06    -380.646E-06    -386.379E-06
            5144               1     746.422E-06     710.217E-06    -379.731E-06    -384.105E-06
            5145               1     756.295E-06     721.583E-06    -377.321E-06    -383.810E-06
            5146               1     768.512E-06     726.908E-06    -375.740E-06    -379.262E-06
            5147               1     777.667E-06     740.093E-06    -371.225E-06    -378.232E-06
            5148               1     787.672E-06     742.075E-06    -366.257E-06    -369.091E-06
            5149               1     790.345E-06     748.617E-06    -356.926E-06    -363.219E-06
            5150               1     784.975E-06     736.922E-06    -339.442E-06    -342.259E-06
            5151               1     739.111E-06     695.688E-06    -312.737E-06    -315.700E-06
            5152               1     673.951E-06     616.536E-06    -266.298E-06    -261.560E-06
            5153               1     604.197E-06     755.548E-06    -319.331E-06    -420.285E-06
            5154               1     680.017E-06     717.629E-06    -380.172E-06    -410.492E-06
            5155               1     697.204E-06     682.483E-06    -389.620E-06    -393.500E-06
            5156               1     711.386E-06     692.281E-06    -394.508E-06    -399.662E-06
            5157               1     718.504E-06     686.037E-06    -394.417E-06    -395.591E-06
            5158               1     728.578E-06     691.186E-06    -395.301E-06    -397.409E-06
            5159               1     736.404E-06     692.734E-06    -394.398E-06    -396.158E-06
            5160               1     745.720E-06     696.835E-06    -393.833E-06    -395.785E-06
            5161               1     754.762E-06     701.617E-06    -392.811E-06    -394.834E-06
            5162               1     764.137E-06     705.998E-06    -391.299E-06    -393.083E-06
            5163               1     773.142E-06     712.695E-06    -389.388E-06    -391.659E-06
            5164               1     781.682E-06     716.012E-06    -386.266E-06    -387.798E-06
            5165               1     788.328E-06     722.408E-06    -382.011E-06    -384.516E-06
            5166               1     792.320E-06     720.231E-06    -374.752E-06    -375.963E-06
            5167               1     789.346E-06     718.702E-06    -363.988E-06    -366.560E-06
            5168               1     777.852E-06     699.916E-06    -346.408E-06    -347.294E-06
            5169               1     740.023E-06     664.214E-06    -317.332E-06    -319.774E-06
            5170               1     689.495E-06     600.744E-06    -282.720E-06    -280.043E-06
            5171               1     543.480E-06     459.137E-06    -211.568E-06    -213.709E-06
            5172               1     96.1191E-03     104.392E-03     47.4073E-03     48.8238E-03
            5173               1     107.063E-03     114.683E-03     52.9859E-03     52.8973E-03
            5174               1     114.041E-03     124.005E-03     53.5618E-03     54.3553E-03
            5175               1     124.040E-03     134.735E-03     55.7546E-03     55.9484E-03
            5176               1     132.229E-03     144.461E-03     55.4392E-03     55.7961E-03
            5177               1     141.750E-03     155.099E-03     55.8859E-03     56.1554E-03
            5178               1     150.789E-03     165.348E-03     55.2347E-03     55.5114E-03
            5179               1     160.389E-03     176.080E-03     54.8644E-03     55.1559E-03
            5180               1     169.792E-03     186.527E-03     53.8169E-03     54.0818E-03
            5181               1     179.290E-03     197.169E-03     52.6912E-03     52.9968E-03
            5182               1     188.452E-03     207.251E-03     50.8300E-03     51.0825E-03
            5183               1     197.339E-03     217.392E-03     48.5347E-03     48.8762E-03
            5184               1     205.516E-03     226.335E-03     45.0289E-03     45.2380E-03
            5185               1     212.877E-03     235.287E-03     40.5289E-03     40.9982E-03
            5186               1     219.568E-03     242.356E-03     34.0286E-03     34.0455E-03
            5187               1     223.047E-03     247.876E-03     24.6431E-03     25.3429E-03
            5188               1     230.873E-03     255.974E-03     15.0794E-03     15.1052E-03
            5189               1     230.112E-03     259.117E-03    -6.44424E-03    -4.13009E-03
            5190               1     280.881E-03     319.395E-03    -14.5778E-03    -7.06139E-03
            5191               1     94.4527E-03     99.3163E-03     47.8430E-03     47.7642E-03
            5192               1     101.421E-03     109.514E-03     48.7005E-03     50.9261E-03
            5193               1     111.254E-03     118.508E-03     51.5252E-03     52.0520E-03
            5194               1     119.618E-03     127.825E-03     50.8813E-03     51.9321E-03
            5195               1     129.022E-03     137.914E-03     51.4424E-03     52.1646E-03
            5196               1     138.850E-03     148.351E-03     50.9271E-03     51.6525E-03
            5197               1     148.896E-03     159.183E-03     50.8016E-03     51.5690E-03
            5198               1     159.402E-03     170.226E-03     50.2277E-03     50.9095E-03
            5199               1     169.941E-03     181.497E-03     49.6534E-03     50.4435E-03
            5200               1     180.731E-03     192.741E-03     48.7412E-03     49.4036E-03
            5201               1     191.483E-03     204.254E-03     47.5212E-03     48.3547E-03
            5202               1     202.261E-03     215.338E-03     45.8505E-03     46.4654E-03
            5203               1     212.959E-03     227.002E-03     43.5188E-03     44.4839E-03
            5204               1     223.743E-03     237.694E-03     40.2564E-03     40.7269E-03
            5205               1     233.558E-03     249.036E-03     35.9703E-03     37.2493E-03
            5206               1     246.202E-03     261.201E-03     28.8165E-03     29.0121E-03
            5207               1     250.146E-03     265.875E-03     21.1477E-03     22.3993E-03
            5208               1     280.681E-03     294.179E-03     9.05694E-03     12.1600E-03
            5209               1     287.118E-03     276.349E-03     34.2919E-03     30.1867E-03
            5210               1     88.2492E-03     94.7491E-03     43.5554E-03     46.2514E-03
            5211               1     99.4589E-03     104.271E-03     47.8781E-03     48.6158E-03
            5212               1     108.507E-03     112.858E-03     47.3815E-03     48.6604E-03
            5213               1     116.585E-03     121.635E-03     47.5293E-03     48.4662E-03
            5214               1     126.852E-03     131.587E-03     46.9397E-03     47.9168E-03
            5215               1     136.628E-03     141.889E-03     46.7340E-03     47.7386E-03
            5216               1     147.869E-03     153.121E-03     46.4618E-03     47.3692E-03
            5217               1     158.853E-03     164.458E-03     46.2276E-03     47.2537E-03
            5218               1     170.660E-03     176.304E-03     46.0096E-03     46.8923E-03
            5219               1     182.366E-03     188.335E-03     45.6189E-03     46.6792E-03
            5220               1     194.604E-03     200.542E-03     45.2842E-03     46.1262E-03
            5221               1     206.888E-03     213.245E-03     44.5941E-03     45.7183E-03
            5222               1     219.676E-03     225.731E-03     43.8807E-03     44.6573E-03
            5223               1     232.726E-03     239.587E-03     42.9308E-03     44.1846E-03
            5224               1     246.709E-03     252.671E-03     40.6164E-03     41.3791E-03
            5225               1     261.378E-03     268.565E-03     40.5600E-03     41.9264E-03
            5226               1     279.067E-03     285.842E-03     31.1060E-03     31.8321E-03
            5227               1     291.110E-03     287.429E-03     42.8269E-03     38.1309E-03
            5228               1     268.937E-03     278.484E-03     36.0910E-03     32.0634E-03
            5229               1     81.8258E-03     85.8461E-03     40.7612E-03     42.3990E-03
            5230               1     96.8327E-03     96.4915E-03     43.4443E-03     43.7038E-03
            5231               1     103.644E-03     105.557E-03     43.0997E-03     44.1890E-03
            5232               1     115.019E-03     115.020E-03     43.0736E-03     43.8039E-03
            5233               1     123.875E-03     124.577E-03     42.4635E-03     43.5058E-03
            5234               1     135.618E-03     135.606E-03     42.4610E-03     43.3525E-03
            5235               1     146.540E-03     146.577E-03     42.2791E-03     43.3094E-03
            5236               1     158.891E-03     158.556E-03     42.4939E-03     43.3907E-03
            5237               1     170.934E-03     170.537E-03     42.5615E-03     43.6103E-03
            5238               1     183.818E-03     183.094E-03     43.0077E-03     43.8701E-03
            5239               1     196.634E-03     195.882E-03     43.3011E-03     44.3865E-03
            5240               1     210.160E-03     209.002E-03     44.0900E-03     44.9073E-03
            5241               1     223.901E-03     222.875E-03     44.8901E-03     45.9779E-03
            5242               1     238.330E-03     236.582E-03     45.9517E-03     46.8034E-03
            5243               1     254.628E-03     253.305E-03     48.5612E-03     49.5417E-03
            5244               1     269.377E-03     267.189E-03     48.3551E-03     49.5578E-03
            5245               1     296.490E-03     293.357E-03     58.0587E-03     58.2589E-03
            5246               1     290.860E-03     297.443E-03     45.9212E-03     43.9627E-03
            5247               1     287.266E-03     280.077E-03     46.3504E-03     39.6819E-03
            5248               1     77.3932E-03     71.7182E-03     35.7817E-03     34.0129E-03
            5249               1     86.6822E-03     85.4290E-03     35.9495E-03     37.1607E-03
            5250               1     101.590E-03     96.7101E-03     38.1247E-03     38.0462E-03
            5251               1     110.148E-03     106.549E-03     37.3060E-03     38.2084E-03
            5252               1     122.681E-03     117.642E-03     37.9940E-03     38.5668E-03
            5253               1     133.424E-03     128.219E-03     37.7336E-03     38.5387E-03
            5254               1     146.067E-03     140.087E-03     38.2694E-03     38.9582E-03
            5255               1     158.140E-03     151.726E-03     38.4719E-03     39.2706E-03
            5256               1     171.190E-03     164.166E-03     39.2689E-03     39.9434E-03
            5257               1     184.047E-03     176.596E-03     39.9781E-03     40.7985E-03
            5258               1     197.557E-03     189.548E-03     41.3644E-03     42.0014E-03
            5259               1     211.075E-03     202.709E-03     42.9141E-03     43.7425E-03
            5260               1     225.209E-03     216.287E-03     45.3379E-03     45.9712E-03
            5261               1     239.979E-03     230.792E-03     48.6520E-03     49.3148E-03
            5262               1     254.553E-03     244.810E-03     52.6169E-03     53.4337E-03
            5263               1     274.718E-03     264.262E-03     60.0512E-03     60.2431E-03
            5264               1     284.533E-03     275.652E-03     65.8054E-03     67.0623E-03
            5265               1     325.741E-03     317.665E-03     74.4321E-03     78.1615E-03
            5266               1     293.295E-03     308.784E-03     48.9886E-03     49.2029E-03
            5267               1     60.7455E-03     54.7832E-03     24.9429E-03     25.6788E-03
            5268               1     82.3557E-03     73.0365E-03     30.4946E-03     29.7523E-03
            5269               1     93.8112E-03     85.7633E-03     30.5128E-03     31.0738E-03
            5270               1     108.177E-03     98.3790E-03     32.6322E-03     32.6729E-03
            5271               1     119.515E-03     109.279E-03     32.4885E-03     32.8492E-03
            5272               1     132.514E-03     121.176E-03     33.4427E-03     33.6795E-03
            5273               1     144.678E-03     132.534E-03     33.5995E-03     33.9167E-03
            5274               1     157.701E-03     144.671E-03     34.5007E-03     34.7633E-03
            5275               1     170.467E-03     156.615E-03     35.2119E-03     35.5250E-03
            5276               1     183.649E-03     169.049E-03     36.6111E-03     36.8651E-03
            5277               1     196.781E-03     181.381E-03     38.2300E-03     38.5495E-03
            5278               1     210.098E-03     194.101E-03     40.6971E-03     40.9381E-03
            5279               1     223.560E-03     206.812E-03     43.9398E-03     44.2380E-03
            5280               1     237.080E-03     219.965E-03     48.3958E-03     48.6513E-03
            5281               1     251.408E-03     233.705E-03     54.4609E-03     54.5843E-03
            5282               1     265.320E-03     247.816E-03     63.0021E-03     63.2949E-03
            5283               1     283.438E-03     265.180E-03     70.7750E-03     71.3067E-03
            5284               1     305.227E-03     286.921E-03     90.0165E-03     91.4815E-03
            5285               1     370.946E-03     344.423E-03     82.3270E-03     93.2024E-03
            5286               1     14.1102E-03     14.4511E-03     7.80519E-03     7.74673E-03
            5287               1     23.3305E-03     24.3664E-03     7.80519E-03     7.74672E-03
            5288               1     36.5772E-03     37.7752E-03     7.80519E-03     7.74672E-03
            5289               1     50.7921E-03     52.0441E-03     7.80519E-03     7.74673E-03
            5290               1     65.3464E-03     66.6225E-03     7.80519E-03     7.74673E-03
            5291               1     80.0551E-03     81.3444E-03     7.80519E-03     7.74672E-03
            5292               1     94.8465E-03     96.1437E-03     7.80519E-03     7.74673E-03
            5293               1     109.687E-03     110.990E-03     7.80519E-03     7.74672E-03
            5294               1     124.559E-03     125.866E-03     7.80519E-03     7.74673E-03
            5295               1     139.453E-03     140.762E-03     7.80519E-03     7.74673E-03
            5296               1     154.362E-03     155.673E-03     7.80519E-03     7.74673E-03
            5297               1     169.282E-03     170.595E-03     7.80519E-03     7.74673E-03
            5298               1     184.211E-03     185.525E-03     7.80519E-03     7.74672E-03
            5299               1     199.147E-03     200.461E-03     7.80519E-03     7.74673E-03
            5300               1     214.087E-03     215.403E-03     7.80519E-03     7.74672E-03
            5301               1     229.032E-03     230.348E-03     7.80519E-03     7.74673E-03
            5302               1     243.980E-03     245.297E-03     7.80519E-03     7.74673E-03
            5303               1     258.931E-03     260.249E-03     7.80519E-03     7.74673E-03
            5304               1     273.885E-03     275.203E-03     7.80519E-03     7.74673E-03
            5305               1     95.8212E-03     107.149E-03     34.6521E-03     33.4769E-03
            5306               1     93.4661E-03     98.6255E-03     46.6444E-03     44.9381E-03
            5307               1     73.0397E-03     71.6620E-03     23.3786E-03     24.9553E-03
            5308               1     87.1624E-03     93.3038E-03     41.7626E-03     43.2279E-03
            5309               1     37.6249E-03     47.3709E-03     13.3486E-03     14.6016E-03
            5310               1     68.8462E-03     74.4353E-03     32.6235E-03     35.6618E-03
            5311               1     16.7460E-03     19.9866E-03     6.64041E-03     9.02354E-03
            5312               1     52.3933E-03     60.8050E-03     27.4855E-03     30.7964E-03
            5313               1     28.2184E-03     25.4001E-03     3.73940E-03     7.27238E-03
            5314               1     54.3855E-03     53.9882E-03     30.6082E-03     30.4861E-03
            5315               1     47.8480E-03     66.3061E-03     8.94860E-03     7.57377E-03
            5316               1     49.1656E-03     40.0112E-03     25.7240E-03     22.4959E-03
            5317               1     29.6314E-03     28.4110E-03     7.80519E-03     7.74673E-03
            5318               1     17.4830E-03     16.5925E-03     7.80519E-03     7.74673E-03
            5319               1     912.440E-06     1.04735E-03    -299.046E-06    -263.679E-06
            5320               1     1.43259E-03     1.67045E-03    -147.210E-06    -114.078E-06
            5321               1     1.01520E-03     1.04498E-03    -293.138E-06    -282.263E-06
            5322               1     1.25179E-03     1.14685E-03    -7.36958E-06    -33.7175E-06
            5323               1     812.097E-06     842.881E-06    -163.254E-06    -208.387E-06
            5324               1     865.551E-06     938.674E-06     67.2096E-06     52.8121E-06
            5325               1     624.575E-06     652.214E-06    -148.075E-06    -161.758E-06
            5326               1     632.680E-06     615.038E-06     109.486E-06     88.9136E-06
            5327               1     435.798E-06     486.435E-06    -121.211E-06    -165.009E-06
            5328               1     370.590E-06     334.984E-06     116.626E-06     95.2713E-06
            5329               1     421.049E-06     398.324E-06    -201.968E-06    -191.817E-06
            5330               1     178.435E-06     155.774E-06     94.5184E-06     62.0908E-06
            5331               1     417.259E-06     303.421E-06    -178.282E-06    -152.636E-06
            5332               1     294.960E-06     503.646E-06     3.92666E-06     17.6286E-06
            5333               1     183.790E-03     184.812E-03    -33.3934E-03    -33.4519E-03
            5334               1     183.953E-03     216.640E-03    -49.2517E-03    -49.6211E-03
            5335               1     236.471E-03     191.110E-03    -48.6034E-03    -48.2500E-03
            5336               1     195.352E-03     213.177E-03    -49.5294E-03    -47.8682E-03
            5337               1     193.193E-03     209.213E-03    -47.6671E-03    -48.8393E-03
            5338               1     220.484E-03     182.617E-03    -50.8423E-03    -48.0595E-03
            5339               1     171.382E-03     190.274E-03    -47.3121E-03    -44.0555E-03
            5340               1     159.660E-03     160.339E-03    -29.9242E-03    -29.9827E-03
            5341               1     155.265E-03     188.619E-03    -41.0068E-03    -41.9953E-03
            5342               1     199.234E-03     157.304E-03    -42.1506E-03    -40.7168E-03
            5343               1     161.151E-03     176.094E-03    -42.5382E-03    -40.3951E-03
            5344               1     151.949E-03     161.784E-03    -41.0931E-03    -41.9515E-03
            5345               1     168.818E-03     144.607E-03    -43.3587E-03    -42.4844E-03
            5346               1     132.050E-03     139.325E-03    -41.0502E-03    -37.7214E-03
            5347               1     131.677E-03     131.971E-03    -24.6749E-03    -24.7334E-03
            5348               1     121.509E-03     154.526E-03    -30.3137E-03    -31.1345E-03
            5349               1     158.371E-03     120.364E-03    -28.7980E-03    -28.7388E-03
            5350               1     116.094E-03     131.016E-03    -30.0410E-03    -28.9476E-03
            5351               1     108.622E-03     114.622E-03    -29.1229E-03    -31.3994E-03
            5352               1     110.858E-03     99.8067E-03    -34.0112E-03    -30.7741E-03
            5353               1     90.3860E-03     84.9617E-03    -31.2943E-03    -26.7522E-03
            5354               1     101.755E-03     101.644E-03    -18.0033E-03    -18.0618E-03
            5355               1     86.3520E-03     116.956E-03    -11.8734E-03    -15.1507E-03
            5356               1     110.671E-03     80.1650E-03    -12.7481E-03    -15.2492E-03
            5357               1     77.8608E-03     91.1075E-03    -15.1392E-03    -15.3076E-03
            5358               1     63.1616E-03     64.3869E-03    -13.5907E-03    -14.8968E-03
            5359               1     51.4987E-03     53.2085E-03    -17.5204E-03    -12.7810E-03
            5360               1     38.5029E-03     19.0225E-03    -13.4427E-03    -6.94232E-03
            5361               1     72.1050E-03     71.5833E-03    -10.3640E-03    -10.4225E-03
            5362               1     58.7767E-03     84.2174E-03    -486.304E-06    -1.14766E-03
            5363               1     88.5378E-03     54.6856E-03     2.49768E-03     1.40974E-03
            5364               1     48.2312E-03     60.1391E-03     4.37109E-03     8.30919E-03
            5365               1     32.6160E-03     25.6522E-03     8.38621E-03     10.0721E-03
            5366               1     27.7000E-03     20.8952E-03     10.2438E-03     9.37461E-03
            5367               1     26.6742E-03     47.4602E-03     13.6275E-03     15.2429E-03
            5368               1     45.4865E-03     44.5573E-03    -2.27763E-03    -2.33609E-03
            5369               1     84.5324E-03     105.201E-03     24.5995E-03     24.7824E-03
            5370               1     83.7634E-03     73.2921E-03     32.1979E-03     35.4451E-03
            5371               1     58.3391E-03     68.3851E-03     33.3119E-03     36.7821E-03
            5372               1     65.4214E-03     71.2362E-03     37.4130E-03     38.3651E-03
            5373               1     97.7853E-03     83.2749E-03     45.9307E-03     43.0862E-03
            5374               1     102.006E-03     116.067E-03     45.5689E-03     41.8370E-03
            5431               1     767.881E-06     877.938E-06    -272.377E-06    -281.716E-06
            5432               1     726.712E-06     825.405E-06    -323.872E-06    -318.814E-06
            5433               1     699.535E-06     795.236E-06    -326.794E-06    -332.929E-06
            5434               1     692.190E-06     784.161E-06    -342.693E-06    -342.971E-06
            5435               1     677.856E-06     768.885E-06    -342.677E-06    -346.392E-06
            5436               1     666.048E-06     754.866E-06    -345.168E-06    -346.245E-06
            5437               1     650.611E-06     738.421E-06    -342.612E-06    -345.355E-06
            5438               1     637.423E-06     722.536E-06    -341.856E-06    -343.356E-06
            5439               1     623.441E-06     706.100E-06    -339.405E-06    -341.724E-06
            5440               1     612.204E-06     691.046E-06    -338.392E-06    -340.191E-06
            5441               1     601.436E-06     675.844E-06    -336.689E-06    -338.797E-06
            5442               1     593.648E-06     662.937E-06    -336.117E-06    -338.099E-06
            5443               1     586.151E-06     648.848E-06    -334.767E-06    -336.719E-06
            5444               1     583.029E-06     638.953E-06    -335.095E-06    -336.963E-06
            5445               1     577.410E-06     623.602E-06    -333.056E-06    -334.177E-06
            5446               1     577.904E-06     620.778E-06    -333.624E-06    -337.284E-06
            5447               1     570.790E-06     600.470E-06    -328.811E-06    -330.457E-06
            5448               1     563.019E-06     623.923E-06    -321.376E-06    -345.042E-06
            5449               1     509.955E-06     641.391E-06    -273.000E-06    -349.892E-06
            5450               1     795.843E-06     864.596E-06    -331.519E-06    -320.690E-06
            5451               1     773.171E-06     844.838E-06    -343.014E-06    -355.320E-06
            5452               1     743.715E-06     810.461E-06    -358.925E-06    -359.962E-06
            5453               1     727.820E-06     799.512E-06    -356.398E-06    -366.716E-06
            5454               1     712.369E-06     776.081E-06    -358.821E-06    -361.349E-06
            5455               1     692.675E-06     761.712E-06    -353.315E-06    -361.346E-06
            5456               1     678.794E-06     741.564E-06    -353.133E-06    -356.619E-06
            5457               1     660.923E-06     726.335E-06    -348.988E-06    -355.641E-06
            5458               1     648.537E-06     709.141E-06    -348.461E-06    -352.857E-06
            5459               1     634.652E-06     694.692E-06    -346.108E-06    -351.932E-06
            5460               1     624.467E-06     680.641E-06    -345.540E-06    -350.650E-06
            5461               1     614.810E-06     667.507E-06    -344.482E-06    -349.801E-06
            5462               1     607.624E-06     656.658E-06    -344.061E-06    -349.481E-06
            5463               1     601.700E-06     644.539E-06    -343.668E-06    -348.392E-06
            5464               1     598.492E-06     638.010E-06    -343.867E-06    -349.119E-06
            5465               1     595.114E-06     623.361E-06    -343.158E-06    -345.992E-06
            5466               1     589.599E-06     631.712E-06    -340.381E-06    -354.000E-06
            5467               1     577.755E-06     626.540E-06    -332.117E-06    -355.475E-06
            5468               1     627.347E-06     632.274E-06    -360.462E-06    -364.304E-06
            5469               1     846.883E-06     870.362E-06    -338.719E-06    -345.095E-06
            5470               1     782.822E-06     834.545E-06    -359.296E-06    -367.239E-06
            5471               1     794.628E-06     841.376E-06    -377.239E-06    -389.482E-06
            5472               1     764.916E-06     804.023E-06    -374.286E-06    -377.638E-06
            5473               1     743.588E-06     790.872E-06    -367.580E-06    -379.006E-06
            5474               1     724.282E-06     762.321E-06    -365.309E-06    -369.557E-06
            5475               1     702.368E-06     747.224E-06    -359.045E-06    -368.813E-06
            5476               1     688.071E-06     726.256E-06    -358.472E-06    -363.975E-06
            5477               1     671.032E-06     712.493E-06    -355.100E-06    -363.563E-06
            5478               1     659.363E-06     696.767E-06    -354.893E-06    -361.475E-06
            5479               1     647.320E-06     684.581E-06    -353.631E-06    -361.185E-06
            5480               1     637.590E-06     672.813E-06    -353.132E-06    -360.525E-06
            5481               1     630.116E-06     662.493E-06    -353.307E-06    -360.304E-06
            5482               1     622.754E-06     654.235E-06    -352.642E-06    -360.390E-06
            5483               1     618.950E-06     646.252E-06    -353.437E-06    -360.501E-06
            5484               1     619.825E-06     640.333E-06    -356.060E-06    -360.209E-06
            5485               1     615.662E-06     628.944E-06    -354.478E-06    -357.973E-06
            5486               1     651.260E-06     618.069E-06    -375.520E-06    -355.593E-06
            5487               1     667.507E-06     538.448E-06    -385.206E-06    -309.698E-06
            5488               1     720.165E-06     778.800E-06    -273.757E-06    -314.379E-06
            5489               1     829.916E-06     844.131E-06    -376.591E-06    -383.342E-06
            5490               1     803.182E-06     821.223E-06    -374.546E-06    -381.111E-06
            5491               1     795.472E-06     815.784E-06    -379.489E-06    -390.574E-06
            5492               1     769.604E-06     781.742E-06    -374.602E-06    -378.862E-06
            5493               1     746.483E-06     767.083E-06    -368.677E-06    -379.639E-06
            5494               1     729.184E-06     741.927E-06    -367.587E-06    -372.990E-06
            5495               1     709.830E-06     728.858E-06    -363.673E-06    -373.436E-06
            5496               1     697.028E-06     711.245E-06    -363.957E-06    -370.595E-06
            5497               1     682.894E-06     700.109E-06    -362.419E-06    -371.048E-06
            5498               1     672.032E-06     687.536E-06    -362.474E-06    -370.123E-06
            5499               1     662.549E-06     678.137E-06    -362.598E-06    -370.375E-06
            5500               1     652.805E-06     669.355E-06    -361.902E-06    -370.425E-06
            5501               1     647.529E-06     662.655E-06    -363.211E-06    -370.936E-06
            5502               1     641.105E-06     656.566E-06    -363.065E-06    -371.148E-06
            5503               1     636.729E-06     654.517E-06    -363.457E-06    -372.978E-06
            5504               1     661.800E-06     637.474E-06    -380.252E-06    -365.160E-06
            5505               1     660.232E-06     592.515E-06    -380.535E-06    -340.954E-06
            5506               1     656.967E-06     641.046E-06    -379.283E-06    -369.844E-06
            5507               1     705.620E-06     710.005E-06    -303.578E-06    -306.058E-06
            5508               1     787.415E-06     780.601E-06    -335.315E-06    -345.846E-06
            5509               1     813.112E-06     802.028E-06    -368.950E-06    -376.511E-06
            5510               1     799.231E-06     783.481E-06    -370.131E-06    -374.008E-06
            5511               1     783.114E-06     775.022E-06    -371.569E-06    -381.397E-06
            5512               1     766.261E-06     750.957E-06    -372.202E-06    -376.510E-06
            5513               1     747.752E-06     740.561E-06    -370.168E-06    -379.598E-06
            5514               1     734.858E-06     722.442E-06    -371.582E-06    -377.078E-06
            5515               1     720.012E-06     713.179E-06    -370.551E-06    -378.950E-06
            5516               1     709.029E-06     700.326E-06    -371.563E-06    -378.105E-06
            5517               1     697.954E-06     692.127E-06    -371.670E-06    -379.103E-06
            5518               1     687.725E-06     683.207E-06    -371.799E-06    -379.173E-06
            5519               1     680.254E-06     676.543E-06    -372.846E-06    -379.612E-06
            5520               1     670.740E-06     671.129E-06    -372.152E-06    -380.375E-06
            5521               1     665.872E-06     667.342E-06    -373.509E-06    -380.915E-06
            5522               1     662.197E-06     664.641E-06    -374.952E-06    -381.820E-06
            5523               1     652.707E-06     663.367E-06    -372.745E-06    -381.977E-06
            5524               1     687.230E-06     657.878E-06    -396.085E-06    -378.115E-06
            5525               1     702.406E-06     570.258E-06    -404.846E-06    -329.189E-06
            5526               1     673.951E-06     616.536E-06    -266.298E-06    -261.560E-06
            5527               1     739.111E-06     695.688E-06    -312.737E-06    -315.700E-06
            5528               1     784.975E-06     736.922E-06    -339.442E-06    -342.259E-06
            5529               1     790.345E-06     748.617E-06    -356.926E-06    -363.219E-06
            5530               1     787.672E-06     742.075E-06    -366.257E-06    -369.091E-06
            5531               1     777.667E-06     740.093E-06    -371.225E-06    -378.232E-06
            5532               1     768.512E-06     726.908E-06    -375.740E-06    -379.262E-06
            5533               1     756.295E-06     721.583E-06    -377.321E-06    -383.810E-06
            5534               1     746.422E-06     710.217E-06    -379.731E-06    -384.105E-06
            5535               1     735.340E-06     704.047E-06    -380.646E-06    -386.379E-06
            5536               1     725.492E-06     695.657E-06    -381.768E-06    -386.802E-06
            5537               1     716.290E-06     689.818E-06    -382.666E-06    -387.715E-06
            5538               1     706.841E-06     684.560E-06    -382.952E-06    -388.482E-06
            5539               1     699.592E-06     679.496E-06    -383.834E-06    -388.280E-06
            5540               1     690.923E-06     678.840E-06    -383.470E-06    -390.265E-06
            5541               1     683.598E-06     673.278E-06    -383.318E-06    -388.134E-06
            5542               1     669.380E-06     689.599E-06    -378.428E-06    -398.127E-06
            5543               1     646.181E-06     701.607E-06    -366.643E-06    -404.684E-06
            5544               1     698.722E-06     722.439E-06    -401.431E-06    -413.628E-06
            5545               1     543.480E-06     459.137E-06    -211.568E-06    -213.709E-06
            5546               1     689.495E-06     600.744E-06    -282.720E-06    -280.043E-06
            5547               1     740.023E-06     664.214E-06    -317.332E-06    -319.774E-06
            5548               1     777.852E-06     699.916E-06    -346.408E-06    -347.294E-06
            5549               1     789.346E-06     718.702E-06    -363.988E-06    -366.560E-06
            5550               1     792.320E-06     720.231E-06    -374.752E-06    -375.963E-06
            5551               1     788.328E-06     722.408E-06    -382.011E-06    -384.516E-06
            5552               1     781.682E-06     716.012E-06    -386.266E-06    -387.798E-06
            5553               1     773.142E-06     712.695E-06    -389.388E-06    -391.659E-06
            5554               1     764.137E-06     705.998E-06    -391.299E-06    -393.083E-06
            5555               1     754.762E-06     701.617E-06    -392.811E-06    -394.834E-06
            5556               1     745.720E-06     696.835E-06    -393.833E-06    -395.785E-06
            5557               1     736.404E-06     692.734E-06    -394.398E-06    -396.158E-06
            5558               1     728.578E-06     691.186E-06    -395.301E-06    -397.409E-06
            5559               1     718.504E-06     686.037E-06    -394.417E-06    -395.591E-06
            5560               1     711.386E-06     692.281E-06    -394.508E-06    -399.662E-06
            5561               1     697.204E-06     682.483E-06    -389.620E-06    -393.500E-06
            5562               1     680.017E-06     717.629E-06    -380.172E-06    -410.492E-06
            5563               1     604.197E-06     755.548E-06    -319.331E-06    -420.285E-06
            5564               1     402.150E-03     409.680E-03     65.0520E-03     63.2195E-03
            5565               1     285.275E-03     287.862E-03     77.2199E-03     74.9970E-03
            5566               1     240.330E-03     241.652E-03     56.3221E-03     56.5675E-03
            5567               1     209.161E-03     209.769E-03     56.8856E-03     56.1618E-03
            5568               1     183.242E-03     183.379E-03     48.6327E-03     48.7543E-03
            5569               1     162.337E-03     162.286E-03     47.4527E-03     47.1910E-03
            5570               1     142.080E-03     141.882E-03     42.9459E-03     43.0042E-03
            5571               1     124.415E-03     124.142E-03     41.5604E-03     41.4551E-03
            5572               1     106.942E-03     106.695E-03     38.8567E-03     38.8998E-03
            5573               1     91.9572E-03     91.6438E-03     37.9408E-03     37.8859E-03
            5574               1     78.1419E-03     78.0024E-03     36.5084E-03     36.5582E-03
            5575               1     68.6659E-03     68.4306E-03     36.3764E-03     36.3288E-03
            5576               1     63.0144E-03     63.1206E-03     36.0310E-03     36.1104E-03
            5577               1     64.6328E-03     64.5534E-03     36.8805E-03     36.8012E-03
            5578               1     70.9570E-03     71.2535E-03     37.4985E-03     37.6526E-03
            5579               1     83.1298E-03     83.0941E-03     39.6260E-03     39.4060E-03
            5580               1     97.0862E-03     97.4521E-03     40.9700E-03     41.3093E-03
            5581               1     115.068E-03     115.014E-03     45.1717E-03     44.4352E-03
            5582               1     133.341E-03     134.194E-03     46.5724E-03     47.2879E-03
            5583               1     335.551E-03     328.424E-03     15.3439E-03     15.9823E-03
            5584               1     317.816E-03     315.588E-03     64.8851E-03     63.4241E-03
            5585               1     247.476E-03     247.361E-03     63.7357E-03     62.1163E-03
            5586               1     223.018E-03     222.567E-03     58.0222E-03     57.9165E-03
            5587               1     192.939E-03     192.614E-03     56.3627E-03     55.6013E-03
            5588               1     172.224E-03     171.935E-03     51.4894E-03     51.5341E-03
            5589               1     151.223E-03     150.781E-03     49.7215E-03     49.3809E-03
            5590               1     132.862E-03     132.606E-03     46.4620E-03     46.5365E-03
            5591               1     115.773E-03     115.316E-03     45.1697E-03     44.9986E-03
            5592               1     100.126E-03     99.9611E-03     43.1979E-03     43.2943E-03
            5593               1     87.5036E-03     87.0899E-03     42.6551E-03     42.5351E-03
            5594               1     77.4945E-03     77.5794E-03     41.7638E-03     41.9066E-03
            5595               1     73.4293E-03     73.1216E-03     42.1055E-03     41.9650E-03
            5596               1     73.8958E-03     74.3753E-03     42.1694E-03     42.4090E-03
            5597               1     81.3223E-03     81.1072E-03     43.5670E-03     43.2935E-03
            5598               1     92.0154E-03     92.7412E-03     44.4557E-03     44.8707E-03
            5599               1     107.082E-03     106.832E-03     47.2492E-03     46.5296E-03
            5600               1     124.402E-03     125.000E-03     48.7284E-03     49.3511E-03
            5601               1     143.288E-03     142.872E-03     53.3049E-03     51.4348E-03
            5602               1     290.061E-03     291.496E-03     14.1524E-03     13.7925E-03
            5603               1     280.570E-03     278.081E-03     33.5898E-03     34.2553E-03
            5604               1     264.676E-03     262.118E-03     58.5155E-03     57.7506E-03
            5605               1     222.497E-03     221.844E-03     57.6470E-03     56.7898E-03
            5606               1     204.434E-03     203.451E-03     57.4431E-03     57.3180E-03
            5607               1     178.055E-03     177.413E-03     55.3633E-03     54.8249E-03
            5608               1     159.826E-03     159.353E-03     52.8508E-03     52.8937E-03
            5609               1     139.811E-03     139.203E-03     51.1344E-03     50.8413E-03
            5610               1     123.039E-03     122.767E-03     49.0672E-03     49.1636E-03
            5611               1     107.528E-03     106.972E-03     48.1071E-03     47.9197E-03
            5612               1     94.5383E-03     94.4798E-03     46.8819E-03     47.0213E-03
            5613               1     85.6606E-03     85.1874E-03     46.7270E-03     46.5545E-03
            5614               1     80.7223E-03     81.0494E-03     46.3516E-03     46.5660E-03
            5615               1     82.3896E-03     82.0791E-03     47.0209E-03     46.7842E-03
            5616               1     88.5130E-03     89.1774E-03     47.4650E-03     47.7837E-03
            5617               1     99.7429E-03     99.6652E-03     48.9796E-03     48.5493E-03
            5618               1     114.534E-03     114.915E-03     50.2013E-03     50.5459E-03
            5619               1     130.158E-03     130.506E-03     52.1265E-03     51.3780E-03
            5620               1     152.329E-03     150.781E-03     54.1443E-03     53.7400E-03
            5621               1     271.132E-03     267.770E-03     9.35116E-03     9.49678E-03
            5622               1     261.022E-03     259.874E-03     32.5051E-03     31.9753E-03
            5623               1     244.366E-03     243.116E-03     42.3586E-03     42.6878E-03
            5624               1     231.534E-03     229.454E-03     55.9788E-03     55.5607E-03
            5625               1     202.416E-03     201.647E-03     55.1694E-03     54.7731E-03
            5626               1     186.183E-03     185.202E-03     56.4415E-03     56.3853E-03
            5627               1     163.181E-03     162.457E-03     54.6416E-03     54.3080E-03
            5628               1     146.272E-03     145.788E-03     53.5567E-03     53.6269E-03
            5629               1     128.084E-03     127.415E-03     52.3294E-03     52.0925E-03
            5630               1     113.304E-03     113.071E-03     51.2277E-03     51.3422E-03
            5631               1     100.591E-03     99.9864E-03     50.7095E-03     50.5088E-03
            5632               1     91.4410E-03     91.5214E-03     50.1136E-03     50.2773E-03
            5633               1     87.3981E-03     86.9489E-03     50.2306E-03     50.0105E-03
            5634               1     88.1107E-03     88.5803E-03     50.2554E-03     50.4796E-03
            5635               1     94.4868E-03     94.4053E-03     50.8723E-03     50.6061E-03
            5636               1     105.371E-03     105.767E-03     51.6056E-03     51.7901E-03
            5637               1     118.220E-03     118.842E-03     52.2264E-03     52.0125E-03
            5638               1     136.216E-03     135.376E-03     53.6213E-03     53.3040E-03
            5639               1     150.322E-03     151.753E-03     51.7919E-03     52.5653E-03
            5640               1     247.647E-03     246.981E-03     10.1872E-03     9.99934E-03
            5641               1     244.510E-03     242.617E-03     25.1624E-03     25.5488E-03
            5642               1     236.849E-03     235.041E-03     42.2295E-03     41.8558E-03
            5643               1     219.910E-03     218.931E-03     46.6129E-03     46.8207E-03
            5644               1     207.069E-03     205.539E-03     54.7303E-03     54.5754E-03
            5645               1     183.952E-03     183.159E-03     53.9492E-03     53.7743E-03
            5646               1     168.003E-03     167.225E-03     55.5225E-03     55.5672E-03
            5647               1     148.013E-03     147.276E-03     54.4990E-03     54.2750E-03
            5648               1     132.569E-03     132.149E-03     54.3189E-03     54.4130E-03
            5649               1     117.071E-03     116.376E-03     53.7304E-03     53.5167E-03
            5650               1     105.220E-03     105.068E-03     53.3325E-03     53.4516E-03
            5651               1     96.4741E-03     95.8806E-03     53.1642E-03     52.9407E-03
            5652               1     92.1520E-03     92.3593E-03     52.9777E-03     53.1316E-03
            5653               1     93.0234E-03     92.7558E-03     53.0667E-03     52.8330E-03
            5654               1     98.8164E-03     99.2316E-03     53.2580E-03     53.3919E-03
            5655               1     108.165E-03     108.602E-03     53.1933E-03     53.0941E-03
            5656               1     122.217E-03     122.061E-03     53.9269E-03     53.7333E-03
            5657               1     135.178E-03     136.615E-03     52.5530E-03     53.1063E-03
            5658               1     151.715E-03     151.075E-03     52.8814E-03     51.9969E-03
            5659               1     231.463E-03     229.561E-03     9.61696E-03     9.64943E-03
            5660               1     229.786E-03     228.114E-03     26.6878E-03     26.4079E-03
            5661               1     224.679E-03     223.397E-03     34.9566E-03     35.4488E-03
            5662               1     216.093E-03     214.504E-03     46.5404E-03     46.3785E-03
            5663               1     199.388E-03     198.488E-03     48.1839E-03     48.3859E-03
            5664               1     184.998E-03     184.000E-03     53.6050E-03     53.6629E-03
            5665               1     165.572E-03     164.816E-03     53.6631E-03     53.5643E-03
            5666               1     150.449E-03     149.853E-03     55.3936E-03     55.4893E-03
            5667               1     133.581E-03     132.845E-03     55.2554E-03     55.0705E-03
            5668               1     120.499E-03     120.156E-03     55.6705E-03     55.7643E-03
            5669               1     108.588E-03     107.898E-03     55.5872E-03     55.3692E-03
            5670               1     100.671E-03     100.619E-03     55.5912E-03     55.6947E-03
            5671               1     96.4866E-03     96.0041E-03     55.4989E-03     55.2575E-03
            5672               1     96.9978E-03     97.2739E-03     55.3940E-03     55.4979E-03
            5673               1     101.739E-03     101.797E-03     55.0233E-03     54.8504E-03
            5674               1     110.918E-03     111.228E-03     54.9794E-03     54.9519E-03
            5675               1     121.811E-03     122.738E-03     53.6645E-03     53.9395E-03
            5676               1     136.439E-03     136.254E-03     53.8605E-03     53.3141E-03
            5677               1     149.192E-03     150.483E-03     51.2013E-03     52.0354E-03
            5678               1     214.303E-03     212.076E-03     11.0878E-03     11.1370E-03
            5679               1     217.147E-03     215.907E-03     23.1332E-03     23.5293E-03
            5680               1     215.423E-03     213.742E-03     35.8721E-03     35.7279E-03
            5681               1     206.846E-03     205.710E-03     39.0912E-03     39.6030E-03
            5682               1     193.869E-03     192.970E-03     47.2173E-03     47.3970E-03
            5683               1     178.571E-03     177.799E-03     49.4103E-03     49.5178E-03
            5684               1     164.442E-03     163.764E-03     53.6733E-03     53.8155E-03
            5685               1     148.276E-03     147.536E-03     54.7552E-03     54.6526E-03
            5686               1     135.238E-03     134.755E-03     56.6525E-03     56.7477E-03
            5687               1     121.964E-03     121.234E-03     57.1601E-03     56.9752E-03
            5688               1     112.243E-03     111.989E-03     57.8757E-03     57.9513E-03
            5689               1     104.518E-03     103.900E-03     57.9784E-03     57.7465E-03
            5690               1     100.870E-03     100.925E-03     58.0153E-03     58.0887E-03
            5691               1     100.796E-03     100.506E-03     57.6338E-03     57.3918E-03
            5692               1     104.817E-03     105.169E-03     57.1604E-03     57.2097E-03
            5693               1     111.972E-03     112.280E-03     55.9597E-03     55.8838E-03
            5694               1     122.152E-03     122.718E-03     55.0951E-03     55.0083E-03
            5695               1     134.003E-03     134.894E-03     52.5639E-03     53.0899E-03
            5696               1     148.286E-03     148.131E-03     52.2864E-03     51.6644E-03
            5697               1     196.284E-03     195.993E-03     10.2408E-03     10.2407E-03
            5698               1     206.870E-03     204.295E-03     24.9145E-03     24.6773E-03
            5699               1     206.104E-03     204.791E-03     27.5598E-03     28.3761E-03
            5700               1     193.835E-03     193.312E-03     37.2475E-03     37.6704E-03
            5701               1     184.702E-03     183.933E-03     42.2943E-03     42.5687E-03
            5702               1     172.122E-03     171.533E-03     48.8409E-03     49.0792E-03
            5703               1     159.090E-03     158.367E-03     52.0406E-03     52.0487E-03
            5704               1     147.237E-03     146.672E-03     55.8873E-03     56.0061E-03
            5705               1     134.592E-03     133.853E-03     57.6076E-03     57.4859E-03
            5706               1     124.742E-03     124.336E-03     59.5587E-03     59.6259E-03
            5707               1     115.441E-03     114.775E-03     60.2835E-03     60.0953E-03
            5708               1     109.517E-03     109.371E-03     60.9552E-03     61.0057E-03
            5709               1     105.754E-03     105.288E-03     60.8554E-03     60.6203E-03
            5710               1     105.525E-03     105.697E-03     60.4992E-03     60.5477E-03
            5711               1     108.239E-03     108.107E-03     59.4998E-03     59.2595E-03
            5712               1     113.634E-03     114.207E-03     58.1120E-03     58.1817E-03
            5713               1     121.948E-03     122.187E-03     55.9668E-03     55.8770E-03
            5714               1     131.027E-03     132.280E-03     53.6362E-03     53.7898E-03
            5715               1     143.562E-03     144.408E-03     49.8681E-03     50.6445E-03
            5716               1     186.906E-03     181.314E-03     11.6926E-03     11.8820E-03
            5717               1     197.669E-03     196.853E-03     12.1062E-03     13.3851E-03
            5718               1     183.856E-03     184.080E-03     23.2648E-03     24.1338E-03
            5719               1     181.812E-03     181.236E-03     32.7808E-03     33.0702E-03
            5720               1     172.024E-03     171.680E-03     41.2517E-03     41.6080E-03
            5721               1     163.973E-03     163.266E-03     47.4559E-03     47.5242E-03
            5722               1     154.625E-03     154.037E-03     53.3668E-03     53.5117E-03
            5723               1     144.601E-03     143.845E-03     56.9389E-03     56.8877E-03
            5724               1     136.146E-03     135.615E-03     60.5178E-03     60.5829E-03
            5725               1     127.222E-03     126.546E-03     62.3041E-03     62.1861E-03
            5726               1     120.926E-03     120.614E-03     64.0485E-03     64.0860E-03
            5727               1     115.307E-03     114.816E-03     64.5340E-03     64.3698E-03
            5728               1     112.600E-03     112.579E-03     64.7928E-03     64.8236E-03
            5729               1     111.650E-03     111.378E-03     64.1414E-03     63.9309E-03
            5730               1     113.153E-03     113.459E-03     62.9714E-03     63.0256E-03
            5731               1     117.067E-03     116.944E-03     61.1514E-03     60.8855E-03
            5732               1     121.762E-03     122.665E-03     58.2956E-03     58.5171E-03
            5733               1     130.019E-03     129.989E-03     55.2017E-03     54.9418E-03
            5734               1     135.920E-03     138.151E-03     50.3128E-03     51.1044E-03
            5735               1     176.411E-03     181.413E-03    -10.0074E-03    -8.01188E-03
            5736               1     162.625E-03     164.585E-03     2.58763E-03     3.67817E-03
            5737               1     166.969E-03     167.098E-03     20.8538E-03     20.9352E-03
            5738               1     163.364E-03     163.354E-03     31.4546E-03     31.7660E-03
            5739               1     161.271E-03     160.572E-03     41.6025E-03     41.6286E-03
            5740               1     156.500E-03     155.888E-03     49.6623E-03     49.7649E-03
            5741               1     150.655E-03     149.824E-03     55.5594E-03     55.5533E-03
            5742               1     145.156E-03     144.489E-03     60.9827E-03     61.0203E-03
            5743               1     138.262E-03     137.563E-03     64.1602E-03     64.1253E-03
            5744               1     133.197E-03     132.716E-03     67.2803E-03     67.2975E-03
            5745               1     127.463E-03     127.016E-03     68.5947E-03     68.5398E-03
            5746               1     124.113E-03     123.914E-03     69.8264E-03     69.8376E-03
            5747               1     121.065E-03     120.878E-03     69.6938E-03     69.6189E-03
            5748               1     120.286E-03     120.375E-03     69.2450E-03     69.2606E-03
            5749               1     120.605E-03     120.557E-03     67.7827E-03     67.6708E-03
            5750               1     122.221E-03     122.597E-03     65.5221E-03     65.5909E-03
            5751               1     125.770E-03     125.598E-03     62.7141E-03     62.5025E-03
            5752               1     128.332E-03     129.288E-03     58.0017E-03     58.3366E-03
            5753               1     134.895E-03     134.627E-03     53.8743E-03     53.5012E-03
            5754               1     306.764E-03     311.698E-03     53.0096E-03     51.9542E-03
            5755               1     215.119E-03     216.502E-03     65.3319E-03     63.7026E-03
            5756               1     179.049E-03     179.803E-03     50.9780E-03     51.2055E-03
            5757               1     157.601E-03     157.705E-03     53.2220E-03     52.6788E-03
            5758               1     138.871E-03     138.838E-03     48.0442E-03     48.1513E-03
            5759               1     126.213E-03     125.964E-03     48.4086E-03     48.2110E-03
            5760               1     113.108E-03     112.879E-03     45.6431E-03     45.6925E-03
            5761               1     103.413E-03     103.098E-03     45.3996E-03     45.3211E-03
            5762               1     93.3118E-03     93.0926E-03     43.6832E-03     43.7163E-03
            5763               1     86.0805E-03     85.8106E-03     43.4511E-03     43.4110E-03
            5764               1     79.2231E-03     79.1212E-03     42.4821E-03     42.5186E-03
            5765               1     75.6535E-03     75.4905E-03     42.5915E-03     42.5560E-03
            5766               1     73.3583E-03     73.4440E-03     42.2819E-03     42.3420E-03
            5767               1     74.8172E-03     74.7614E-03     42.9307E-03     42.8679E-03
            5768               1     77.6934E-03     77.9644E-03     43.1890E-03     43.3093E-03
            5769               1     84.1909E-03     84.1332E-03     44.6031E-03     44.4262E-03
            5770               1     91.2520E-03     91.6955E-03     45.2156E-03     45.4807E-03
            5771               1     102.155E-03     101.955E-03     47.9705E-03     47.3866E-03
            5772               1     112.531E-03     113.439E-03     48.3603E-03     48.9192E-03
            5773               1     249.084E-03     244.247E-03     15.3837E-03     15.9513E-03
            5774               1     236.297E-03     234.477E-03     56.6805E-03     55.7401E-03
            5775               1     183.998E-03     183.564E-03     57.6015E-03     56.4240E-03
            5776               1     166.243E-03     165.806E-03     54.4395E-03     54.4081E-03
            5777               1     146.631E-03     146.129E-03     54.4699E-03     53.9053E-03
            5778               1     132.923E-03     132.653E-03     51.4521E-03     51.5047E-03
            5779               1     120.663E-03     120.193E-03     50.9672E-03     50.7160E-03
            5780               1     109.598E-03     109.390E-03     48.8539E-03     48.9141E-03
            5781               1     100.607E-03     100.214E-03     48.3818E-03     48.2582E-03
            5782               1     92.1836E-03     92.0784E-03     47.0432E-03     47.1134E-03
            5783               1     86.5244E-03     86.2257E-03     46.8955E-03     46.8093E-03
            5784               1     81.8857E-03     81.9745E-03     46.2383E-03     46.3431E-03
            5785               1     80.7939E-03     80.5827E-03     46.5856E-03     46.4794E-03
            5786               1     81.1033E-03     81.4695E-03     46.5277E-03     46.7118E-03
            5787               1     85.2067E-03     84.9969E-03     47.5226E-03     47.3039E-03
            5788               1     90.3691E-03     90.9999E-03     47.9407E-03     48.2712E-03
            5789               1     98.9329E-03     98.5288E-03     49.8260E-03     49.2459E-03
            5790               1     108.384E-03     109.054E-03     50.4971E-03     51.0055E-03
            5791               1     120.376E-03     119.517E-03     53.5337E-03     52.0440E-03
            5792               1     209.756E-03     210.798E-03     14.1974E-03     13.8166E-03
            5793               1     202.972E-03     201.341E-03     32.8419E-03     33.3199E-03
            5794               1     194.177E-03     192.255E-03     54.0235E-03     53.5375E-03
            5795               1     165.109E-03     164.436E-03     54.9164E-03     54.2801E-03
            5796               1     153.985E-03     153.255E-03     55.5940E-03     55.5409E-03
            5797               1     137.687E-03     137.072E-03     54.9510E-03     54.5532E-03
            5798               1     126.719E-03     126.384E-03     53.3978E-03     53.4432E-03
            5799               1     115.403E-03     114.896E-03     52.6129E-03     52.4006E-03
            5800               1     105.985E-03     105.819E-03     51.1840E-03     51.2563E-03
            5801               1     98.1664E-03     97.7613E-03     50.7200E-03     50.5866E-03
            5802               1     91.6504E-03     91.6558E-03     49.8268E-03     49.9274E-03
            5803               1     87.9849E-03     87.6705E-03     49.8275E-03     49.7023E-03
            5804               1     85.8377E-03     86.0992E-03     49.5029E-03     49.6635E-03
            5805               1     87.2127E-03     86.9677E-03     50.0254E-03     49.8432E-03
            5806               1     90.1509E-03     90.6700E-03     50.2248E-03     50.4800E-03
            5807               1     96.1802E-03     95.9714E-03     51.2788E-03     50.9312E-03
            5808               1     103.894E-03     104.324E-03     51.9131E-03     52.2216E-03
            5809               1     112.759E-03     112.691E-03     53.1128E-03     52.5020E-03
            5810               1     125.810E-03     124.804E-03     54.1049E-03     53.9050E-03
            5811               1     190.763E-03     188.294E-03     10.3842E-03     10.4651E-03
            5812               1     185.035E-03     184.145E-03     31.6778E-03     31.2562E-03
            5813               1     175.394E-03     174.604E-03     42.0118E-03     42.2296E-03
            5814               1     170.157E-03     168.649E-03     53.8852E-03     53.6215E-03
            5815               1     151.895E-03     151.290E-03     54.5605E-03     54.2659E-03
            5816               1     143.149E-03     142.477E-03     55.9895E-03     55.9686E-03
            5817               1     129.541E-03     128.982E-03     55.2000E-03     54.9594E-03
            5818               1     120.125E-03     119.829E-03     54.4815E-03     54.5364E-03
            5819               1     110.188E-03     109.711E-03     53.7816E-03     53.6142E-03
            5820               1     102.452E-03     102.348E-03     52.9546E-03     53.0357E-03
            5821               1     96.3630E-03     95.9675E-03     52.6550E-03     52.5137E-03
            5822               1     92.0932E-03     92.2006E-03     52.1832E-03     52.3007E-03
            5823               1     90.6829E-03     90.3824E-03     52.3056E-03     52.1460E-03
            5824               1     91.1636E-03     91.5091E-03     52.2675E-03     52.4391E-03
            5825               1     94.5530E-03     94.4225E-03     52.7196E-03     52.5156E-03
            5826               1     100.015E-03     100.352E-03     53.1189E-03     53.2920E-03
            5827               1     106.675E-03     106.968E-03     53.4681E-03     53.2881E-03
            5828               1     116.551E-03     116.030E-03     54.1472E-03     53.9978E-03
            5829               1     123.497E-03     124.677E-03     52.3601E-03     52.9577E-03
            5830               1     168.425E-03     168.076E-03     10.8800E-03     10.6635E-03
            5831               1     169.011E-03     167.686E-03     26.2038E-03     26.4217E-03
            5832               1     167.812E-03     166.491E-03     41.7929E-03     41.5341E-03
            5833               1     159.364E-03     158.803E-03     47.3672E-03     47.5005E-03
            5834               1     154.690E-03     153.637E-03     54.4006E-03     54.3083E-03
            5835               1     141.138E-03     140.625E-03     54.6487E-03     54.5245E-03
            5836               1     133.052E-03     132.567E-03     55.9707E-03     56.0057E-03
            5837               1     121.635E-03     121.144E-03     55.4087E-03     55.2532E-03
            5838               1     113.571E-03     113.352E-03     55.2392E-03     55.3035E-03
            5839               1     105.474E-03     105.030E-03     54.8252E-03     54.6773E-03
            5840               1     99.7224E-03     99.6874E-03     54.4854E-03     54.5666E-03
            5841               1     95.7741E-03     95.4046E-03     54.3572E-03     54.2019E-03
            5842               1     93.9570E-03     94.1256E-03     54.1931E-03     54.3014E-03
            5843               1     94.6524E-03     94.4533E-03     54.2605E-03     54.0960E-03
            5844               1     97.5457E-03     97.8182E-03     54.3566E-03     54.4630E-03
            5845               1     102.094E-03     102.342E-03     54.2800E-03     54.2104E-03
            5846               1     109.361E-03     109.247E-03     54.6282E-03     54.5413E-03
            5847               1     115.454E-03     116.556E-03     53.3838E-03     53.7994E-03
            5848               1     124.088E-03     123.548E-03     53.0255E-03     52.4594E-03
            5849               1     152.265E-03     150.719E-03     10.5514E-03     10.4615E-03
            5850               1     154.720E-03     153.555E-03     27.2601E-03     27.0490E-03
            5851               1     156.194E-03     155.466E-03     36.9811E-03     37.3031E-03
            5852               1     155.882E-03     154.772E-03     47.3605E-03     47.2510E-03
            5853               1     147.777E-03     147.351E-03     50.0723E-03     50.2243E-03
            5854               1     142.049E-03     141.416E-03     54.4564E-03     54.4902E-03
            5855               1     131.019E-03     130.591E-03     54.7670E-03     54.7067E-03
            5856               1     123.627E-03     123.299E-03     56.0376E-03     56.0973E-03
            5857               1     114.407E-03     113.963E-03     55.8949E-03     55.7710E-03
            5858               1     108.051E-03     107.901E-03     56.1440E-03     56.2036E-03
            5859               1     102.167E-03     101.755E-03     56.0119E-03     55.8639E-03
            5860               1     98.6563E-03     98.6725E-03     55.9903E-03     56.0559E-03
            5861               1     96.8769E-03     96.5763E-03     55.8846E-03     55.7225E-03
            5862               1     97.3219E-03     97.4820E-03     55.8127E-03     55.8763E-03
            5863               1     99.5463E-03     99.5662E-03     55.5230E-03     55.4174E-03
            5864               1     104.074E-03     104.189E-03     55.4540E-03     55.4304E-03
            5865               1     108.960E-03     109.688E-03     54.4070E-03     54.6350E-03
            5866               1     116.339E-03     116.096E-03     54.2223E-03     53.8867E-03
            5867               1     121.762E-03     122.828E-03     51.8264E-03     52.4325E-03
            5868               1     134.307E-03     132.897E-03     11.6569E-03     11.7095E-03
            5869               1     142.242E-03     141.412E-03     25.5513E-03     25.7517E-03
            5870               1     148.029E-03     146.873E-03     37.8104E-03     37.7285E-03
            5871               1     147.363E-03     146.906E-03     42.7399E-03     43.1169E-03
            5872               1     144.251E-03     143.696E-03     49.3739E-03     49.4761E-03
            5873               1     136.533E-03     136.196E-03     51.4139E-03     51.5090E-03
            5874               1     130.638E-03     130.266E-03     54.6615E-03     54.7431E-03
            5875               1     121.844E-03     121.450E-03     55.3826E-03     55.3219E-03
            5876               1     115.855E-03     115.627E-03     56.7553E-03     56.8114E-03
            5877               1     109.039E-03     108.626E-03     56.9925E-03     56.8700E-03
            5878               1     104.746E-03     104.652E-03     57.4994E-03     57.5432E-03
            5879               1     101.130E-03     100.770E-03     57.4796E-03     57.3257E-03
            5880               1     99.7313E-03     99.7720E-03     57.5255E-03     57.5617E-03
            5881               1     99.6871E-03     99.4989E-03     57.1946E-03     57.0432E-03
            5882               1     101.654E-03     101.781E-03     56.8886E-03     56.8923E-03
            5883               1     104.676E-03     104.905E-03     55.9609E-03     55.9467E-03
            5884               1     109.486E-03     109.649E-03     55.2847E-03     55.1813E-03
            5885               1     114.377E-03     115.227E-03     53.2823E-03     53.6982E-03
            5886               1     121.103E-03     120.931E-03     52.5273E-03     52.1744E-03
            5887               1     116.423E-03     115.972E-03     11.8047E-03     11.6496E-03
            5888               1     131.509E-03     129.759E-03     27.2688E-03     27.1719E-03
            5889               1     138.839E-03     138.401E-03     33.5782E-03     34.1900E-03
            5890               1     138.850E-03     138.581E-03     41.5126E-03     41.7578E-03
            5891               1     136.318E-03     136.072E-03     45.6902E-03     45.9179E-03
            5892               1     132.596E-03     132.294E-03     50.7932E-03     50.9238E-03
            5893               1     126.220E-03     125.898E-03     53.0421E-03     53.0670E-03
            5894               1     121.575E-03     121.307E-03     55.9543E-03     56.0195E-03
            5895               1     115.213E-03     114.832E-03     57.0381E-03     56.9625E-03
            5896               1     111.187E-03     111.017E-03     58.4956E-03     58.5325E-03
            5897               1     106.743E-03     106.380E-03     58.8832E-03     58.7593E-03
            5898               1     104.452E-03     104.400E-03     59.4058E-03     59.4286E-03
            5899               1     102.683E-03     102.406E-03     59.2364E-03     59.0862E-03
            5900               1     102.746E-03     102.798E-03     59.0324E-03     59.0374E-03
            5901               1     103.688E-03     103.593E-03     58.2270E-03     58.0913E-03
            5902               1     106.005E-03     106.176E-03     57.2843E-03     57.2646E-03
            5903               1     109.170E-03     109.386E-03     55.6105E-03     55.6074E-03
            5904               1     112.924E-03     113.424E-03     53.8924E-03     53.8813E-03
            5905               1     117.450E-03     118.416E-03     50.9291E-03     51.5241E-03
            5906               1     101.869E-03     98.1577E-03     13.2490E-03     13.5757E-03
            5907               1     120.126E-03     120.221E-03     21.7571E-03     22.7293E-03
            5908               1     124.417E-03     124.748E-03     30.9003E-03     31.4284E-03
            5909               1     128.389E-03     128.298E-03     37.8977E-03     38.1498E-03
            5910               1     128.106E-03     127.990E-03     44.6778E-03     44.8744E-03
            5911               1     125.916E-03     125.646E-03     49.0400E-03     49.1133E-03
            5912               1     123.737E-03     123.471E-03     53.6632E-03     53.7401E-03
            5913               1     119.432E-03     119.082E-03     56.0909E-03     56.0669E-03
            5914               1     116.774E-03     116.547E-03     58.8472E-03     58.8819E-03
            5915               1     112.737E-03     112.403E-03     59.9924E-03     59.9163E-03
            5916               1     110.624E-03     110.504E-03     61.3398E-03     61.3581E-03
            5917               1     108.044E-03     107.781E-03     61.5687E-03     61.4620E-03
            5918               1     107.165E-03     107.153E-03     61.8160E-03     61.8220E-03
            5919               1     106.462E-03     106.284E-03     61.2357E-03     61.1071E-03
            5920               1     106.992E-03     107.073E-03     60.4518E-03     60.4475E-03
            5921               1     108.080E-03     107.971E-03     59.0003E-03     58.8551E-03
            5922               1     109.493E-03     109.803E-03     57.0165E-03     57.0624E-03
            5923               1     112.049E-03     112.037E-03     54.5533E-03     54.4431E-03
            5924               1     113.237E-03     114.272E-03     51.1230E-03     51.4303E-03
            5925               1     81.6619E-03     85.7987E-03     3.27311E-03     4.91085E-03
            5926               1     97.1250E-03     98.6721E-03     15.9517E-03     16.5769E-03
            5927               1     109.833E-03     110.141E-03     27.7157E-03     27.8487E-03
            5928               1     115.940E-03     116.029E-03     36.6514E-03     36.8105E-03
            5929               1     119.496E-03     119.234E-03     43.7352E-03     43.7821E-03
            5930               1     121.504E-03     121.233E-03     50.2505E-03     50.2992E-03
            5931               1     120.727E-03     120.365E-03     54.4075E-03     54.4143E-03
            5932               1     120.634E-03     120.342E-03     58.6864E-03     58.7040E-03
            5933               1     118.217E-03     117.909E-03     60.8694E-03     60.8495E-03
            5934               1     117.299E-03     117.104E-03     63.3012E-03     63.3092E-03
            5935               1     114.891E-03     114.693E-03     64.1315E-03     64.0964E-03
            5936               1     114.060E-03     113.987E-03     65.1096E-03     65.1128E-03
            5937               1     112.494E-03     112.398E-03     64.8958E-03     64.8492E-03
            5938               1     112.192E-03     112.219E-03     64.6182E-03     64.6174E-03
            5939               1     111.681E-03     111.622E-03     63.4249E-03     63.3605E-03
            5940               1     111.733E-03     111.845E-03     61.8208E-03     61.8353E-03
            5941               1     112.072E-03     111.901E-03     59.5786E-03     59.4621E-03
            5942               1     111.555E-03     111.889E-03     56.2417E-03     56.3788E-03
            5943               1     112.355E-03     112.040E-03     52.8397E-03     52.6488E-03
            5944               1     213.678E-03     215.919E-03     41.0544E-03     40.8892E-03
            5945               1     148.052E-03     148.346E-03     53.2009E-03     52.2173E-03
            5946               1     122.030E-03     122.307E-03     45.2993E-03     45.5078E-03
            5947               1     111.607E-03     111.360E-03     49.0963E-03     48.7514E-03
            5948               1     101.619E-03     101.535E-03     47.2146E-03     47.3015E-03
            5949               1     98.2573E-03     97.9683E-03     49.1381E-03     49.0069E-03
            5950               1     93.4022E-03     93.2621E-03     48.4634E-03     48.5015E-03
            5951               1     91.7815E-03     91.5572E-03     49.4213E-03     49.3671E-03
            5952               1     88.8932E-03     88.7894E-03     48.9965E-03     49.0197E-03
            5953               1     87.9882E-03     87.8391E-03     49.4878E-03     49.4599E-03
            5954               1     86.2262E-03     86.1952E-03     49.1495E-03     49.1743E-03
            5955               1     86.0703E-03     85.9826E-03     49.5011E-03     49.4742E-03
            5956               1     85.2838E-03     85.3509E-03     49.2317E-03     49.2738E-03
            5957               1     86.1158E-03     86.0529E-03     49.6461E-03     49.5931E-03
            5958               1     86.2582E-03     86.4525E-03     49.3914E-03     49.4773E-03
            5959               1     88.3773E-03     88.2555E-03     50.0341E-03     49.8912E-03
            5960               1     89.4121E-03     89.7992E-03     49.6394E-03     49.8262E-03
            5961               1     93.5347E-03     93.1852E-03     50.8591E-03     50.4312E-03
            5962               1     95.7304E-03     96.5296E-03     49.9380E-03     50.3344E-03
            5963               1     165.254E-03     163.053E-03     15.3245E-03     15.9072E-03
            5964               1     158.616E-03     157.362E-03     48.1293E-03     47.7490E-03
            5965               1     125.572E-03     125.022E-03     50.9112E-03     50.2439E-03
            5966               1     115.765E-03     115.468E-03     50.4767E-03     50.5079E-03
            5967               1     107.736E-03     107.221E-03     52.1641E-03     51.8134E-03
            5968               1     102.104E-03     101.963E-03     51.3621E-03     51.4149E-03
            5969               1     98.9941E-03     98.6261E-03     52.2105E-03     52.0441E-03
            5970               1     95.4503E-03     95.3689E-03     51.5877E-03     51.6324E-03
            5971               1     93.7784E-03     93.5359E-03     51.9810E-03     51.8979E-03
            5972               1     91.4284E-03     91.4123E-03     51.4945E-03     51.5404E-03
            5973               1     90.6706E-03     90.5060E-03     51.7530E-03     51.6944E-03
            5974               1     89.3459E-03     89.4326E-03     51.3994E-03     51.4690E-03
            5975               1     89.6166E-03     89.4673E-03     51.7337E-03     51.6513E-03
            5976               1     89.2993E-03     89.5446E-03     51.4768E-03     51.6061E-03
            5977               1     90.8090E-03     90.5640E-03     52.0322E-03     51.8486E-03
            5978               1     91.4663E-03     91.9290E-03     51.7623E-03     52.0034E-03
            5979               1     94.5032E-03     93.9487E-03     52.6919E-03     52.2328E-03
            5980               1     96.4149E-03     97.0581E-03     52.2366E-03     52.6239E-03
            5981               1     101.437E-03     100.249E-03     53.6634E-03     52.5832E-03
            5982               1     133.059E-03     133.662E-03     14.1643E-03     13.7078E-03
            5983               1     129.443E-03     128.889E-03     31.4281E-03     31.8051E-03
            5984               1     129.193E-03     128.077E-03     48.9144E-03     48.6899E-03
            5985               1     114.558E-03     114.007E-03     51.4583E-03     51.0858E-03
            5986               1     111.424E-03     111.078E-03     53.4372E-03     53.4412E-03
            5987               1     105.986E-03     105.505E-03     54.2889E-03     54.0317E-03
            5988               1     102.720E-03     102.600E-03     54.1452E-03     54.1886E-03
            5989               1     99.8559E-03     99.5248E-03     54.3559E-03     54.2140E-03
            5990               1     97.1501E-03     97.1187E-03     53.8611E-03     53.9101E-03
            5991               1     95.5149E-03     95.2900E-03     53.9131E-03     53.8260E-03
            5992               1     93.6778E-03     93.7334E-03     53.4783E-03     53.5434E-03
            5993               1     93.1789E-03     92.9963E-03     53.6210E-03     53.5351E-03
            5994               1     92.3865E-03     92.5748E-03     53.3339E-03     53.4446E-03
            5995               1     93.1216E-03     92.8995E-03     53.6821E-03     53.5367E-03
            5996               1     93.4047E-03     93.7666E-03     53.4874E-03     53.6799E-03
            5997               1     95.3817E-03     95.0126E-03     54.0549E-03     53.7588E-03
            5998               1     96.8036E-03     97.2387E-03     53.8043E-03     54.0715E-03
            5999               1     99.6587E-03     99.1621E-03     54.2760E-03     53.7796E-03
            6000               1     103.153E-03     102.855E-03     53.8511E-03     53.8652E-03
            6001               1     114.284E-03     113.028E-03     11.0487E-03     11.2040E-03
            6002               1     114.009E-03     113.390E-03     30.1618E-03     29.7604E-03
            6003               1     112.241E-03     112.016E-03     40.5822E-03     40.7518E-03
            6004               1     115.966E-03     115.192E-03     51.1167E-03     50.9760E-03
            6005               1     109.735E-03     109.336E-03     53.3214E-03     53.1328E-03
            6006               1     109.107E-03     108.839E-03     55.5221E-03     55.5277E-03
            6007               1     105.189E-03     104.832E-03     55.8449E-03     55.6831E-03
            6008               1     102.972E-03     102.891E-03     55.9142E-03     55.9534E-03
            6009               1     100.353E-03     100.090E-03     55.7782E-03     55.6706E-03
            6010               1     98.2462E-03     98.2554E-03     55.4127E-03     55.4633E-03
            6011               1     96.8418E-03     96.6389E-03     55.3191E-03     55.2319E-03
            6012               1     95.5876E-03     95.6946E-03     55.0061E-03     55.0827E-03
            6013               1     95.4587E-03     95.2676E-03     55.1072E-03     54.9996E-03
            6014               1     95.3055E-03     95.5383E-03     54.9280E-03     55.0548E-03
            6015               1     96.3609E-03     96.1509E-03     55.1968E-03     55.0303E-03
            6016               1     97.3025E-03     97.5880E-03     55.0419E-03     55.2082E-03
            6017               1     98.9947E-03     98.8779E-03     55.1325E-03     54.9400E-03
            6018               1     100.959E-03     100.846E-03     54.6935E-03     54.7099E-03
            6019               1     101.509E-03     102.254E-03     53.0539E-03     53.4300E-03
            6020               1     94.3908E-03     94.2912E-03     11.2403E-03     10.8102E-03
            6021               1     98.7232E-03     98.1421E-03     26.0107E-03     26.1895E-03
            6022               1     105.407E-03     104.681E-03     40.3027E-03     40.0690E-03
            6023               1     106.556E-03     106.374E-03     46.9867E-03     47.0514E-03
            6024               1     111.024E-03     110.571E-03     53.7365E-03     53.6871E-03
            6025               1     107.859E-03     107.586E-03     55.1611E-03     55.0630E-03
            6026               1     107.603E-03     107.446E-03     56.8407E-03     56.8645E-03
            6027               1     104.406E-03     104.152E-03     56.8035E-03     56.7017E-03
            6028               1     102.620E-03     102.582E-03     56.8979E-03     56.9352E-03
            6029               1     100.368E-03     100.158E-03     56.6447E-03     56.5586E-03
            6030               1     98.8331E-03     98.8699E-03     56.4232E-03     56.4704E-03
            6031               1     97.8285E-03     97.6485E-03     56.3016E-03     56.2146E-03
            6032               1     97.2316E-03     97.3519E-03     56.1306E-03     56.2018E-03
            6033               1     97.4391E-03     97.2934E-03     56.1581E-03     56.0563E-03
            6034               1     97.9144E-03     98.0897E-03     56.0427E-03     56.1384E-03
            6035               1     98.8777E-03     98.8800E-03     55.9702E-03     55.8963E-03
            6036               1     100.132E-03     100.139E-03     55.6394E-03     55.6681E-03
            6037               1     100.590E-03     101.115E-03     54.6074E-03     54.8152E-03
            6038               1     100.936E-03     100.617E-03     53.0431E-03     52.7783E-03
            6039               1     79.0133E-03     78.1273E-03     10.6358E-03     10.7016E-03
            6040               1     86.2739E-03     85.6726E-03     26.5652E-03     26.2183E-03
            6041               1     94.9905E-03     94.7576E-03     37.3144E-03     37.4966E-03
            6042               1     104.202E-03     103.706E-03     47.4312E-03     47.3271E-03
            6043               1     105.808E-03     105.701E-03     51.3936E-03     51.4456E-03
            6044               1     108.974E-03     108.742E-03     55.6262E-03     55.6330E-03
            6045               1     106.506E-03     106.338E-03     56.2842E-03     56.2382E-03
            6046               1     105.911E-03     105.828E-03     57.4107E-03     57.4386E-03
            6047               1     103.233E-03     103.050E-03     57.2448E-03     57.1754E-03
            6048               1     101.824E-03     101.810E-03     57.3774E-03     57.4055E-03
            6049               1     100.092E-03     99.9214E-03     57.1480E-03     57.0743E-03
            6050               1     99.1904E-03     99.2265E-03     57.0748E-03     57.1064E-03
            6051               1     98.6172E-03     98.4849E-03     56.9304E-03     56.8560E-03
            6052               1     98.6518E-03     98.7241E-03     56.8487E-03     56.8866E-03
            6053               1     98.9717E-03     98.9700E-03     56.6590E-03     56.6179E-03
            6054               1     99.8059E-03     99.8336E-03     56.4454E-03     56.4606E-03
            6055               1     100.194E-03     100.559E-03     55.7448E-03     55.8770E-03
            6056               1     100.748E-03     100.575E-03     54.8023E-03     54.6775E-03
            6057               1     99.9806E-03     100.507E-03     52.8244E-03     53.1297E-03
            6058               1     62.3795E-03     61.8469E-03     11.4980E-03     11.0775E-03
            6059               1     75.2306E-03     74.7442E-03     25.8571E-03     26.0058E-03
            6060               1     89.5279E-03     89.1060E-03     38.4844E-03     38.3569E-03
            6061               1     97.9305E-03     97.8567E-03     45.3100E-03     45.4534E-03
            6062               1     105.107E-03     104.903E-03     51.8039E-03     51.8214E-03
            6063               1     105.485E-03     105.446E-03     53.8118E-03     53.8566E-03
            6064               1     106.855E-03     106.756E-03     56.3836E-03     56.4130E-03
            6065               1     104.679E-03     104.564E-03     56.7090E-03     56.6791E-03
            6066               1     103.951E-03     103.910E-03     57.5363E-03     57.5574E-03
            6067               1     101.911E-03     101.766E-03     57.4297E-03     57.3727E-03
            6068               1     101.019E-03     101.007E-03     57.6452E-03     57.6564E-03
            6069               1     99.8595E-03     99.7289E-03     57.4622E-03     57.3999E-03
            6070               1     99.5721E-03     99.5713E-03     57.4808E-03     57.4818E-03
            6071               1     99.2871E-03     99.2392E-03     57.2188E-03     57.1772E-03
            6072               1     99.7265E-03     99.7052E-03     57.0860E-03     57.0684E-03
            6073               1     99.8568E-03     100.040E-03     56.5166E-03     56.5693E-03
            6074               1     100.472E-03     100.419E-03     55.9505E-03     55.8997E-03
            6075               1     100.152E-03     100.633E-03     54.6508E-03     54.8880E-03
            6076               1     99.3134E-03     99.2123E-03     52.9045E-03     52.7660E-03
            6077               1     47.2779E-03     46.5798E-03     11.7858E-03     12.0024E-03
            6078               1     67.0057E-03     66.5507E-03     27.8086E-03     27.5864E-03
            6079               1     83.4141E-03     83.2783E-03     37.7844E-03     37.9819E-03
            6080               1     95.8676E-03     95.7899E-03     46.2265E-03     46.2877E-03
            6081               1     100.553E-03     100.638E-03     49.6674E-03     49.8013E-03
            6082               1     104.265E-03     104.201E-03     53.5536E-03     53.5952E-03
            6083               1     103.864E-03     103.850E-03     54.7793E-03     54.8077E-03
            6084               1     104.362E-03     104.319E-03     56.5566E-03     56.5791E-03
            6085               1     102.747E-03     102.654E-03     56.8987E-03     56.8690E-03
            6086               1     102.324E-03     102.295E-03     57.6522E-03     57.6581E-03
            6087               1     100.984E-03     100.870E-03     57.6442E-03     57.5941E-03
            6088               1     100.659E-03     100.624E-03     57.9167E-03     57.9031E-03
            6089               1     99.9349E-03     99.8564E-03     57.6907E-03     57.6468E-03
            6090               1     100.056E-03     99.9862E-03     57.6694E-03     57.6271E-03
            6091               1     99.7807E-03     99.8271E-03     57.1477E-03     57.1497E-03
            6092               1     100.199E-03     100.093E-03     56.7690E-03     56.6958E-03
            6093               1     99.8907E-03     100.153E-03     55.7501E-03     55.8526E-03
            6094               1     99.7530E-03     99.8029E-03     54.6629E-03     54.6337E-03
            6095               1     98.5830E-03     99.0329E-03     52.8820E-03     53.1718E-03
            6096               1     33.0491E-03     32.4085E-03     13.4237E-03     13.0221E-03
            6097               1     60.4405E-03     60.1361E-03     28.6082E-03     28.8226E-03
            6098               1     81.1384E-03     81.3891E-03     39.7107E-03     39.9309E-03
            6099               1     91.1295E-03     91.3218E-03     44.3303E-03     44.5220E-03
            6100               1     97.4443E-03     97.4914E-03     49.1073E-03     49.1840E-03
            6101               1     99.9779E-03     100.057E-03     51.4842E-03     51.5597E-03
            6102               1     102.150E-03     102.136E-03     54.2415E-03     54.2724E-03
            6103               1     101.939E-03     101.909E-03     55.3908E-03     55.3925E-03
            6104               1     102.519E-03     102.496E-03     56.9069E-03     56.9163E-03
            6105               1     101.638E-03     101.556E-03     57.3521E-03     57.3188E-03
            6106               1     101.709E-03     101.676E-03     58.0858E-03     58.0752E-03
            6107               1     100.915E-03     100.834E-03     58.0765E-03     58.0360E-03
            6108               1     100.967E-03     100.895E-03     58.2852E-03     58.2448E-03
            6109               1     100.374E-03     100.347E-03     57.8665E-03     57.8446E-03
            6110               1     100.502E-03     100.363E-03     57.6170E-03     57.5338E-03
            6111               1     99.9030E-03     99.9798E-03     56.7101E-03     56.7312E-03
            6112               1     99.7819E-03     99.6536E-03     55.8898E-03     55.7968E-03
            6113               1     98.7530E-03     98.9293E-03     54.3952E-03     54.4630E-03
            6114               1     97.3029E-03     97.7426E-03     52.6228E-03     52.7774E-03
            6115               1     25.3654E-03     26.0711E-03     14.4997E-03     15.0302E-03
            6116               1     59.6594E-03     60.5842E-03     31.9608E-03     32.4933E-03
            6117               1     76.2342E-03     76.6549E-03     37.8669E-03     38.1331E-03
            6118               1     85.4609E-03     85.6541E-03     43.1021E-03     43.2084E-03
            6119               1     92.0519E-03     92.2088E-03     46.9089E-03     47.0087E-03
            6120               1     96.5395E-03     96.5681E-03     50.6041E-03     50.6371E-03
            6121               1     98.7850E-03     98.8094E-03     52.8985E-03     52.9240E-03
            6122               1     101.004E-03     100.995E-03     55.3366E-03     55.3483E-03
            6123               1     101.377E-03     101.337E-03     56.5294E-03     56.5161E-03
            6124               1     102.390E-03     102.371E-03     57.9353E-03     57.9329E-03
            6125               1     102.053E-03     101.995E-03     58.3567E-03     58.3286E-03
            6126               1     102.448E-03     102.406E-03     58.9726E-03     58.9501E-03
            6127               1     101.841E-03     101.799E-03     58.7905E-03     58.7665E-03
            6128               1     101.877E-03     101.777E-03     58.7554E-03     58.6977E-03
            6129               1     101.025E-03     101.024E-03     57.9890E-03     57.9852E-03
            6130               1     100.647E-03     100.463E-03     57.3071E-03     57.2033E-03
            6131               1     99.3139E-03     99.3431E-03     55.8923E-03     55.9049E-03
            6132               1     98.0669E-03     97.9370E-03     54.4272E-03     54.3441E-03
            6133               1     95.8026E-03     95.7555E-03     52.3345E-03     52.2941E-03
            6134               1     37.9619E-03     38.2709E-03     17.6065E-03     18.8191E-03
            6135               1     54.1141E-03     54.5742E-03     29.6775E-03     29.8304E-03
            6136               1     66.2557E-03     66.6366E-03     34.7692E-03     34.9091E-03
            6137               1     78.7852E-03     78.9069E-03     40.9234E-03     40.9605E-03
            6138               1     86.8347E-03     86.9159E-03     45.6825E-03     45.7161E-03
            6139               1     92.6908E-03     92.7120E-03     49.5264E-03     49.5404E-03
            6140               1     97.4048E-03     97.4129E-03     53.0420E-03     53.0519E-03
            6141               1     99.8475E-03     99.8330E-03     55.2459E-03     55.2452E-03
            6142               1     102.406E-03     102.400E-03     57.4974E-03     57.4993E-03
            6143               1     103.087E-03     103.064E-03     58.5376E-03     58.5286E-03
            6144               1     104.293E-03     104.282E-03     59.7323E-03     59.7274E-03
            6145               1     104.061E-03     104.044E-03     59.9265E-03     59.9163E-03
            6146               1     104.379E-03     104.350E-03     60.2544E-03     60.2376E-03
            6147               1     103.551E-03     103.541E-03     59.7406E-03     59.7362E-03
            6148               1     103.099E-03     103.022E-03     59.2716E-03     59.2337E-03
            6149               1     101.607E-03     101.593E-03     58.0397E-03     58.0447E-03
            6150               1     100.151E-03     99.9976E-03     56.7074E-03     56.6447E-03
            6151               1     97.6021E-03     97.5270E-03     54.6500E-03     54.6497E-03
            6152               1     94.4215E-03     94.2659E-03     52.2340E-03     52.2039E-03
            6153               1     92.4398E-03     92.5948E-03     30.9248E-03     31.3854E-03
            6154               1     87.1482E-03     86.3409E-03     48.6834E-03     48.1981E-03
            6155               1     85.0675E-03     85.2301E-03     48.2920E-03     48.4701E-03
            6156               1     92.2247E-03     92.0208E-03     52.8763E-03     52.7909E-03
            6157               1     89.1877E-03     89.1765E-03     51.0808E-03     51.1201E-03
            6158               1     90.5817E-03     90.4764E-03     52.0103E-03     51.9830E-03
            6159               1     89.0978E-03     89.0622E-03     51.1920E-03     51.2056E-03
            6160               1     89.4944E-03     89.4230E-03     51.5012E-03     51.4869E-03
            6161               1     88.9066E-03     88.8738E-03     51.2093E-03     51.2140E-03
            6162               1     89.0278E-03     88.9805E-03     51.3281E-03     51.3187E-03
            6163               1     88.7842E-03     88.7665E-03     51.2204E-03     51.2232E-03
            6164               1     88.8489E-03     88.8183E-03     51.2819E-03     51.2719E-03
            6165               1     88.7392E-03     88.7453E-03     51.2312E-03     51.2369E-03
            6166               1     88.8648E-03     88.8443E-03     51.3055E-03     51.2904E-03
            6167               1     88.8001E-03     88.8345E-03     51.2587E-03     51.2699E-03
            6168               1     89.1122E-03     89.1121E-03     51.4208E-03     51.4057E-03
            6169               1     89.0201E-03     89.0821E-03     51.3352E-03     51.3521E-03
            6170               1     89.7365E-03     89.6420E-03     51.7214E-03     51.6367E-03
            6171               1     88.6233E-03     89.2306E-03     51.0026E-03     51.3423E-03
            6172               1     50.4564E-03     50.1958E-03     20.7363E-03     20.6040E-03
            6173               1     88.6234E-03     88.5759E-03     49.3325E-03     49.4455E-03
            6174               1     94.8836E-03     94.7361E-03     54.4710E-03     54.3764E-03
            6175               1     91.9407E-03     91.9101E-03     52.4874E-03     52.5013E-03
            6176               1     91.5019E-03     91.4508E-03     52.5164E-03     52.4969E-03
            6177               1     90.2746E-03     90.2610E-03     51.7719E-03     51.7811E-03
            6178               1     90.3419E-03     90.2842E-03     51.9470E-03     51.9245E-03
            6179               1     89.9242E-03     89.9154E-03     51.7410E-03     51.7475E-03
            6180               1     89.9529E-03     89.9044E-03     51.8280E-03     51.8083E-03
            6181               1     89.7544E-03     89.7505E-03     51.7502E-03     51.7551E-03
            6182               1     89.7649E-03     89.7210E-03     51.7923E-03     51.7718E-03
            6183               1     89.6598E-03     89.6698E-03     51.7526E-03     51.7612E-03
            6184               1     89.7074E-03     89.6581E-03     51.7912E-03     51.7636E-03
            6185               1     89.6437E-03     89.6774E-03     51.7543E-03     51.7725E-03
            6186               1     89.7727E-03     89.7160E-03     51.8184E-03     51.7822E-03
            6187               1     89.7436E-03     89.7876E-03     51.7772E-03     51.7969E-03
            6188               1     90.0468E-03     90.0193E-03     51.9262E-03     51.9013E-03
            6189               1     90.1914E-03     90.2953E-03     51.9493E-03     52.0093E-03
            6190               1     91.2289E-03     90.7740E-03     52.5503E-03     52.2394E-03
            6191               1     36.3099E-03     36.0757E-03     20.7968E-03     20.6057E-03
            6192               1     81.7074E-03     82.3226E-03     46.7101E-03     47.0104E-03
            6193               1     95.2700E-03     95.0904E-03     53.9567E-03     53.8827E-03
            6194               1     91.1644E-03     91.1938E-03     52.2315E-03     52.2282E-03
            6195               1     91.8296E-03     91.8503E-03     52.5430E-03     52.5482E-03
            6196               1     90.5467E-03     90.5246E-03     52.0144E-03     51.9920E-03
            6197               1     90.9349E-03     90.9556E-03     52.2608E-03     52.2657E-03
            6198               1     90.5751E-03     90.5549E-03     52.1467E-03     52.1283E-03
            6199               1     90.6821E-03     90.6973E-03     52.2475E-03     52.2510E-03
            6200               1     90.5410E-03     90.5168E-03     52.2148E-03     52.1965E-03
            6201               1     90.5421E-03     90.5562E-03     52.2437E-03     52.2488E-03
            6202               1     90.4912E-03     90.4562E-03     52.2355E-03     52.2134E-03
            6203               1     90.4761E-03     90.4962E-03     52.2358E-03     52.2468E-03
            6204               1     90.4706E-03     90.4170E-03     52.2309E-03     52.2008E-03
            6205               1     90.4722E-03     90.5082E-03     52.2184E-03     52.2414E-03
            6206               1     90.4847E-03     90.3913E-03     52.2040E-03     52.1538E-03
            6207               1     90.5866E-03     90.6409E-03     52.2206E-03     52.2578E-03
            6208               1     90.5702E-03     90.5859E-03     52.1801E-03     52.1857E-03
            6209               1     91.6054E-03     91.0139E-03     52.6540E-03     52.3643E-03
            6210               1     61.7779E-03     61.9960E-03     26.2813E-03     26.8740E-03
            6211               1     78.0697E-03     77.4921E-03     44.8697E-03     44.5120E-03
            6212               1     81.6062E-03     82.0300E-03     46.6112E-03     46.8057E-03
            6213               1     91.9442E-03     91.8871E-03     52.5392E-03     52.4694E-03
            6214               1     89.6773E-03     89.7755E-03     51.4291E-03     51.4512E-03
            6215               1     91.9688E-03     91.9934E-03     52.8047E-03     52.7873E-03
            6216               1     90.8635E-03     90.9157E-03     52.2622E-03     52.2657E-03
            6217               1     91.5762E-03     91.6070E-03     52.7235E-03     52.7176E-03
            6218               1     91.1550E-03     91.1831E-03     52.5358E-03     52.5329E-03
            6219               1     91.3790E-03     91.4022E-03     52.7020E-03     52.7002E-03
            6220               1     91.2028E-03     91.2122E-03     52.6304E-03     52.6249E-03
            6221               1     91.2774E-03     91.2882E-03     52.6912E-03     52.6911E-03
            6222               1     91.1797E-03     91.1720E-03     52.6424E-03     52.6360E-03
            6223               1     91.2397E-03     91.2358E-03     52.6738E-03     52.6742E-03
            6224               1     91.1151E-03     91.0875E-03     52.5880E-03     52.5798E-03
            6225               1     91.2369E-03     91.2262E-03     52.6329E-03     52.6386E-03
            6226               1     90.8994E-03     90.8415E-03     52.4037E-03     52.3886E-03
            6227               1     91.1695E-03     91.0139E-03     52.5046E-03     52.4405E-03
            6228               1     89.1933E-03     89.7715E-03     51.3248E-03     51.6744E-03
            6509               1     1.43259E-03     1.67045E-03    -147.210E-06    -114.078E-06
            6510               1     912.440E-06     1.04735E-03    -299.046E-06    -263.679E-06
            6511               1     1.25179E-03     1.14685E-03    -7.36958E-06    -33.7175E-06
            6512               1     1.01520E-03     1.04498E-03    -293.138E-06    -282.263E-06
            6513               1     865.551E-06     938.674E-06     67.2096E-06     52.8121E-06
            6514               1     812.097E-06     842.881E-06    -163.254E-06    -208.387E-06
            6515               1     632.680E-06     615.038E-06     109.486E-06     88.9136E-06
            6516               1     624.575E-06     652.214E-06    -148.075E-06    -161.758E-06
            6517               1     370.590E-06     334.984E-06     116.626E-06     95.2713E-06
            6518               1     435.798E-06     486.435E-06    -121.211E-06    -165.009E-06
            6519               1     178.435E-06     155.774E-06     94.5184E-06     62.0908E-06
            6520               1     421.049E-06     398.324E-06    -201.968E-06    -191.817E-06
            6521               1     294.960E-06     503.646E-06     3.92666E-06     17.6286E-06
            6522               1     417.259E-06     303.421E-06    -178.282E-06    -152.636E-06
            6523               1     157.570E-03     158.223E-03     55.7456E-03     53.1864E-03
            6524               1     188.906E-03     194.662E-03     54.3805E-03     52.0810E-03
            6525               1     171.480E-03     169.852E-03     56.0593E-03     55.3123E-03
            6526               1     191.402E-03     182.874E-03     51.6975E-03     52.2778E-03
            6527               1     168.654E-03     168.481E-03     51.3005E-03     52.3833E-03
            6528               1     181.726E-03     186.178E-03     48.3301E-03     47.4602E-03
            6529               1     166.936E-03     167.133E-03     51.0247E-03     49.9305E-03
            6530               1     181.260E-03     178.368E-03     46.8797E-03     46.6369E-03
            6531               1     164.392E-03     164.808E-03     49.3965E-03     50.0328E-03
            6532               1     177.294E-03     178.211E-03     47.0034E-03     46.5288E-03
            6533               1     163.684E-03     163.180E-03     50.7233E-03     49.9204E-03
            6534               1     174.516E-03     174.617E-03     46.8967E-03     46.8202E-03
            6535               1     160.280E-03     161.654E-03     49.2349E-03     49.9574E-03
            6536               1     173.123E-03     171.455E-03     47.6495E-03     47.5327E-03
            6537               1     158.354E-03     156.959E-03     49.5284E-03     49.0039E-03
            6538               1     166.165E-03     169.215E-03     46.1474E-03     46.2665E-03
            6539               1     149.174E-03     151.176E-03     44.7954E-03     46.2380E-03
            6540               1     164.997E-03     158.291E-03     45.1302E-03     44.9402E-03
            6541               1     135.575E-03     138.689E-03     44.6705E-03     45.9623E-03
            6542               1     150.177E-03     159.421E-03     38.7782E-03     42.2026E-03
            6543               1     129.609E-03     129.521E-03     54.6347E-03     52.6180E-03
            6544               1     149.581E-03     153.445E-03     52.2701E-03     50.8215E-03
            6545               1     138.197E-03     137.015E-03     54.8632E-03     54.4413E-03
            6546               1     150.003E-03     144.396E-03     50.7221E-03     51.2161E-03
            6547               1     134.487E-03     134.756E-03     51.3358E-03     52.2116E-03
            6548               1     141.039E-03     144.015E-03     47.8475E-03     47.1485E-03
            6549               1     132.298E-03     132.260E-03     50.9323E-03     50.1518E-03
            6550               1     139.243E-03     137.167E-03     46.7190E-03     46.5176E-03
            6551               1     129.570E-03     129.943E-03     49.6847E-03     50.1384E-03
            6552               1     135.236E-03     135.879E-03     46.6147E-03     46.2264E-03
            6553               1     128.540E-03     128.176E-03     50.5235E-03     49.9992E-03
            6554               1     132.340E-03     132.128E-03     46.4743E-03     46.3686E-03
            6555               1     125.509E-03     126.408E-03     49.5225E-03     49.9948E-03
            6556               1     130.376E-03     129.545E-03     47.0413E-03     46.9415E-03
            6557               1     123.747E-03     123.059E-03     49.8156E-03     49.6101E-03
            6558               1     124.763E-03     126.141E-03     46.0082E-03     46.0232E-03
            6559               1     116.736E-03     118.602E-03     46.7971E-03     47.8600E-03
            6560               1     122.639E-03     119.312E-03     45.7473E-03     45.7590E-03
            6561               1     109.076E-03     110.418E-03     46.5861E-03     47.1829E-03
            6562               1     110.779E-03     116.752E-03     41.0726E-03     43.5319E-03
            6563               1     104.502E-03     103.706E-03     53.1202E-03     51.7028E-03
            6564               1     111.552E-03     113.596E-03     49.6079E-03     49.0548E-03
            6565               1     107.800E-03     107.325E-03     53.2649E-03     53.1982E-03
            6566               1     110.889E-03     108.459E-03     49.3909E-03     49.8256E-03
            6567               1     104.315E-03     104.987E-03     51.2375E-03     51.9073E-03
            6568               1     103.275E-03     104.584E-03     47.0943E-03     46.6005E-03
            6569               1     101.638E-03     101.448E-03     50.5607E-03     50.1082E-03
            6570               1     100.921E-03     99.9056E-03     46.3247E-03     46.2859E-03
            6571               1     99.8021E-03     100.053E-03     50.0188E-03     50.2944E-03
            6572               1     97.0188E-03     97.3401E-03     45.9101E-03     45.6163E-03
            6573               1     98.0831E-03     97.8790E-03     50.0151E-03     49.7035E-03
            6574               1     95.4188E-03     95.1231E-03     45.9961E-03     46.0397E-03
            6575               1     97.2513E-03     97.4253E-03     50.2019E-03     50.4011E-03
            6576               1     92.5690E-03     92.4811E-03     45.9341E-03     45.6959E-03
            6577               1     95.7472E-03     95.7227E-03     50.1766E-03     50.0768E-03
            6578               1     91.6229E-03     91.4331E-03     46.5520E-03     46.6137E-03
            6579               1     94.9598E-03     95.3107E-03     50.4224E-03     50.7583E-03
            6580               1     88.8767E-03     88.6437E-03     46.3045E-03     46.0978E-03
            6581               1     92.1411E-03     93.3205E-03     49.5467E-03     50.0875E-03
            6582               1     88.0867E-03     87.9296E-03     46.9493E-03     47.1460E-03
            6583               1     89.9071E-03     89.5359E-03     49.1550E-03     49.0314E-03
            6584               1     81.5827E-03     83.9413E-03     44.2599E-03     45.5742E-03
            6585               1     89.8162E-03     88.4209E-03     51.6348E-03     50.7231E-03
            6586               1     84.5165E-03     85.3485E-03     47.6667E-03     47.9368E-03
            6587               1     90.3901E-03     91.2953E-03     51.8614E-03     52.4390E-03
            6588               1     84.4073E-03     83.5475E-03     48.0778E-03     47.8020E-03
            6589               1     89.0245E-03     90.6290E-03     51.1878E-03     52.0591E-03
            6590               1     83.1633E-03     82.6869E-03     47.8451E-03     47.4963E-03
            6591               1     88.6795E-03     87.3286E-03     51.0006E-03     50.2536E-03
            6592               1     80.6920E-03     81.6731E-03     46.5577E-03     47.1527E-03
            6593               1     1.23894E-03     1.20209E-03     711.803E-06     686.239E-06
            6594               1     1.28653E-03     1.25004E-03     735.897E-06     718.112E-06
            6595               1     1.24371E-03     1.25393E-03     716.218E-06     720.600E-06
            6596               1     1.26168E-03     1.24251E-03     726.900E-06     715.819E-06
            6597               1     1.25786E-03     1.25093E-03     725.441E-06     721.615E-06
            6598               1     1.26830E-03     1.24319E-03     732.233E-06     717.531E-06
            6599               1     1.24858E-03     1.22942E-03     720.807E-06     709.421E-06
            6600               1     1.18636E-03     1.20872E-03     652.081E-06     627.435E-06
            6601               1     1.26840E-03     1.19241E-03     675.828E-06     663.103E-06
            6602               1     1.17967E-03     1.22014E-03     657.891E-06     667.965E-06
            6603               1     1.16271E-03     1.13355E-03     657.480E-06     640.172E-06
            6604               1     1.15911E-03     1.14714E-03     663.121E-06     658.353E-06
            6605               1     1.15206E-03     1.13299E-03     664.916E-06     651.409E-06
            6606               1     1.13468E-03     1.11702E-03     654.740E-06     643.428E-06
            6607               1     1.10270E-03     1.23295E-03     542.909E-06     507.299E-06
            6608               1     1.28880E-03     1.07283E-03     569.354E-06     535.191E-06
            6609               1     1.02414E-03     1.08245E-03     526.528E-06     531.082E-06
            6610               1     998.324E-06     1.00798E-03     534.145E-06     543.385E-06
            6611               1     936.796E-06     940.544E-06     519.243E-06     528.113E-06
            6612               1     932.091E-06     921.940E-06     537.876E-06     525.500E-06
            6613               1     915.632E-06     904.806E-06     527.995E-06     515.814E-06
            6614               1     997.554E-06     1.33600E-03     335.234E-06     284.437E-06
            6615               1     1.24807E-03     866.272E-06     353.386E-06     327.526E-06
            6616               1     858.938E-06     1.00835E-03     351.943E-06     364.092E-06
            6617               1     758.699E-06     727.892E-06     349.511E-06     332.374E-06
            6618               1     700.883E-06     685.715E-06     362.898E-06     373.746E-06
            6619               1     577.150E-06     640.301E-06     329.888E-06     349.913E-06
            6620               1     575.773E-06     606.416E-06     331.617E-06     333.194E-06
            6621               1     989.906E-06     1.50250E-03     38.2761E-06     44.2519E-06
            6622               1     1.45516E-03     970.316E-06     81.2825E-06     88.1214E-06
            6623               1     706.863E-06     1.00990E-03     61.2882E-06     48.7698E-06
            6624               1     575.676E-06     532.314E-06     115.324E-06     73.2964E-06
            6625               1     341.934E-06     260.481E-06     87.8200E-06     82.0156E-06
            6626               1     306.122E-06     266.551E-06     155.407E-06     147.058E-06
            6627               1     255.267E-06     360.992E-06     146.615E-06     146.760E-06
            6628               1     1.65212E-03     1.99802E-03    -374.087E-06    -312.834E-06
            6629               1     1.66124E-03     1.28984E-03    -372.776E-06    -344.903E-06
            6630               1     936.693E-06     1.16844E-03    -244.374E-06    -302.170E-06
            6631               1     782.620E-06     711.563E-06    -285.434E-06    -255.591E-06
            6632               1     475.249E-06     494.066E-06    -218.115E-06    -260.827E-06
            6633               1     425.994E-06     410.666E-06    -207.327E-06    -225.525E-06
            6634               1     480.162E-06     687.142E-06    -134.667E-06    -140.514E-06
            1732               1     40.0558E-03     42.8807E-03    -21.3317E-03    -19.2006E-03
            1733               1     45.1757E-03     44.4854E-03    -26.0427E-03    -24.9395E-03
            1734               1     45.6730E-03     46.0412E-03    -26.3275E-03    -26.1631E-03
            1735               1     47.5896E-03     47.2968E-03    -27.4392E-03    -26.9455E-03
            1736               1     46.5546E-03     47.2812E-03    -26.7636E-03    -26.8189E-03
            1737               1     44.0297E-03     44.1843E-03    -25.2870E-03    -25.0200E-03
            1738               1     40.0628E-03     41.8585E-03    -23.0184E-03    -23.7731E-03
            1739               1     32.0259E-03     32.4314E-03    -16.7486E-03    -18.4443E-03
            1740               1     32.2099E-03     33.0787E-03    -17.2082E-03    -18.5130E-03
            1741               1     46.5867E-03     44.7340E-03    -26.7398E-03    -25.3845E-03
            1742               1     48.5742E-03     47.0939E-03    -28.0191E-03    -27.0241E-03
            1743               1     49.3237E-03     49.2904E-03    -28.3893E-03    -28.1490E-03
            1744               1     49.3608E-03     48.6270E-03    -28.2990E-03    -27.6031E-03
            1745               1     46.7852E-03     47.7068E-03    -26.5342E-03    -26.7185E-03
            1746               1     42.5243E-03     43.6727E-03    -24.2317E-03    -24.7923E-03
            1747               1     28.5943E-03     28.5040E-03    -16.4165E-03    -16.4505E-03
            1748               1     27.9509E-03     30.1888E-03    -16.0859E-03    -17.4048E-03
            1749               1     41.0999E-03     42.5386E-03    -23.6812E-03    -24.5547E-03
            1750               1     50.0159E-03     49.5322E-03    -28.8429E-03    -28.5094E-03
            1751               1     51.7213E-03     50.7952E-03    -29.7802E-03    -29.1559E-03
            1752               1     51.5974E-03     51.5956E-03    -29.4213E-03    -29.2403E-03
            1753               1     49.9440E-03     49.5098E-03    -28.1885E-03    -27.7674E-03
            1754               1     42.6754E-03     41.4111E-03    -23.6789E-03    -22.9652E-03
            1755               1     29.4371E-03     29.5231E-03    -15.7819E-03    -15.4052E-03
            1756               1     29.2095E-03     31.0349E-03    -16.2547E-03    -17.1395E-03
            1757               1     40.7816E-03     42.2525E-03    -23.4000E-03    -24.3025E-03
            1758               1     48.4419E-03     49.4468E-03    -27.9646E-03    -28.5478E-03
            1759               1     53.0494E-03     53.0580E-03    -30.5080E-03    -30.4873E-03
            1760               1     53.5378E-03     52.9321E-03    -30.4779E-03    -30.0568E-03
            1761               1     50.9717E-03     49.8897E-03    -28.3447E-03    -27.6746E-03
            1762               1     44.2678E-03     43.5075E-03    -23.6045E-03    -22.8324E-03
            1763               1     34.9696E-03     33.2662E-03    -15.7954E-03    -15.1714E-03
            1764               1     32.8351E-03     33.2660E-03    -16.3580E-03    -17.0522E-03
            1765               1     41.2587E-03     43.1646E-03    -23.2853E-03    -24.2192E-03
            1766               1     48.3707E-03     49.4735E-03    -27.8797E-03    -28.5192E-03
            1767               1     52.8440E-03     53.3590E-03    -30.4227E-03    -30.7564E-03
            1768               1     54.2758E-03     54.1261E-03    -30.7021E-03    -30.6510E-03
            1769               1     51.7700E-03     50.8251E-03    -28.3262E-03    -27.6379E-03
            1770               1     47.4702E-03     45.8674E-03    -23.7415E-03    -22.9791E-03
            1771               1     40.4866E-03     40.0558E-03    -16.2632E-03    -15.3410E-03
            1772               1     36.0337E-03     38.5413E-03    -15.9399E-03    -16.7405E-03
            1773               1     43.3050E-03     44.1797E-03    -23.3682E-03    -24.0190E-03
            1774               1     49.6231E-03     50.4373E-03    -28.5181E-03    -28.8495E-03
            1775               1     51.5288E-03     51.7000E-03    -29.6198E-03    -29.7999E-03
            1776               1     52.1723E-03     52.9070E-03    -29.4632E-03    -30.1044E-03
            1777               1     53.9206E-03     54.0248E-03    -28.8621E-03    -29.0927E-03
            1778               1     50.7810E-03     49.7698E-03    -24.1701E-03    -22.9919E-03
            1779               1     48.4950E-03     45.7004E-03    -16.1517E-03    -15.2441E-03
            1780               1     46.5766E-03     44.9245E-03    -17.3322E-03    -17.6543E-03
            1781               1     49.1294E-03     49.0990E-03    -26.3302E-03    -25.4704E-03
            1782               1     47.1876E-03     47.4181E-03    -27.1695E-03    -27.0752E-03
            1783               1     47.9413E-03     48.9754E-03    -27.5925E-03    -28.2714E-03
            1784               1     50.1778E-03     49.7746E-03    -27.9947E-03    -28.2254E-03
            1785               1     51.3161E-03     51.8561E-03    -27.2322E-03    -28.4110E-03
            1786               1     57.6226E-03     57.9414E-03    -26.3528E-03    -27.3634E-03
            1787               1     57.5342E-03     59.0254E-03    -18.4234E-03    -17.2388E-03
            1788               1     55.2468E-03     59.0319E-03    -22.7421E-03    -20.4543E-03
            1789               1     45.6585E-03     46.8344E-03    -24.9418E-03    -24.3925E-03
            1790               1     42.1332E-03     43.2966E-03    -24.1616E-03    -24.3801E-03
            1791               1     43.8923E-03     43.5530E-03    -25.1875E-03    -25.1435E-03
            1792               1     45.6165E-03     45.2740E-03    -25.2984E-03    -25.8264E-03
            1793               1     48.8995E-03     46.4923E-03    -24.9812E-03    -25.1222E-03
            1794               1     56.5524E-03     53.7822E-03    -25.8326E-03    -27.3063E-03
            1795               1     75.6045E-03     67.3227E-03    -23.5505E-03    -24.8262E-03
            1796               1     33.7297E-03     30.6486E-03    -18.9844E-03    -16.9170E-03
            1797               1     45.4450E-03     41.6084E-03    -25.7268E-03    -23.8630E-03
            1798               1     46.1994E-03     45.6921E-03    -26.6446E-03    -25.9354E-03
            1799               1     49.1873E-03     48.8486E-03    -27.6712E-03    -26.6043E-03
            1800               1     50.3074E-03     50.9131E-03    -26.0787E-03    -25.5777E-03
            1801               1     51.7788E-03     51.7767E-03    -23.4775E-03    -22.8220E-03
            1802               1     50.7968E-03     51.3345E-03    -18.2610E-03    -18.2946E-03
            1803               1     41.3125E-03     45.2062E-03    -8.46821E-03    -10.4844E-03
            1804               1     30.0038E-03     35.3929E-03    -16.1984E-03    -18.5319E-03
            1805               1     44.9415E-03     41.1918E-03    -25.6340E-03    -23.4523E-03
            1806               1     47.0619E-03     43.3548E-03    -27.1334E-03    -24.8433E-03
            1807               1     48.7968E-03     47.1404E-03    -27.1477E-03    -25.6350E-03
            1808               1     52.2561E-03     50.9034E-03    -26.4520E-03    -24.6830E-03
            1809               1     55.3521E-03     55.7197E-03    -23.6998E-03    -22.8493E-03
            1810               1     58.2218E-03     60.2097E-03    -20.0606E-03    -20.2540E-03
            1811               1     58.3725E-03     58.2786E-03    -13.0462E-03    -14.4844E-03
            1812               1     35.1886E-03     36.0050E-03    -15.5005E-03    -17.3969E-03
            1813               1     40.0344E-03     41.9500E-03    -22.6326E-03    -23.4585E-03
            1814               1     47.4115E-03     44.8529E-03    -27.3196E-03    -25.8247E-03
            1815               1     50.2679E-03     47.6064E-03    -27.8343E-03    -25.9998E-03
            1816               1     54.5759E-03     53.3459E-03    -27.0962E-03    -25.7668E-03
            1817               1     59.9423E-03     59.8212E-03    -25.2590E-03    -24.1873E-03
            1818               1     63.7151E-03     64.0740E-03    -21.2562E-03    -21.2493E-03
            1819               1     65.6421E-03     66.5997E-03    -14.0010E-03    -14.4384E-03
            1820               1     39.4015E-03     41.1701E-03    -15.8947E-03    -16.8201E-03
            1821               1     41.0740E-03     41.9562E-03    -22.2576E-03    -22.8878E-03
            1822               1     45.3406E-03     45.3924E-03    -26.1463E-03    -26.2073E-03
            1823               1     51.5536E-03     49.8718E-03    -28.4537E-03    -27.4736E-03
            1824               1     56.9255E-03     55.6581E-03    -27.9628E-03    -26.8256E-03
            1825               1     62.8449E-03     62.1532E-03    -25.9220E-03    -25.1191E-03
            1826               1     68.0016E-03     68.1333E-03    -21.4093E-03    -20.9643E-03
            1827               1     75.0476E-03     73.6445E-03    -14.0414E-03    -14.1651E-03
            1828               1     45.1241E-03     45.0443E-03    -15.9341E-03    -16.6995E-03
            1829               1     41.9148E-03     43.6870E-03    -21.8448E-03    -22.6574E-03
            1830               1     45.7039E-03     46.2949E-03    -26.3387E-03    -26.6975E-03
            1831               1     51.2781E-03     50.9286E-03    -28.2669E-03    -28.1640E-03
            1832               1     58.4802E-03     57.6827E-03    -28.5376E-03    -28.0253E-03
            1833               1     65.4737E-03     64.8999E-03    -26.1275E-03    -25.3537E-03
            1834               1     73.3533E-03     72.1682E-03    -21.4089E-03    -20.8450E-03
            1835               1     82.0652E-03     81.4409E-03    -14.6362E-03    -14.1960E-03
            1836               1     50.1704E-03     50.8684E-03    -15.7219E-03    -16.1746E-03
            1837               1     45.0323E-03     45.9206E-03    -22.0576E-03    -22.7474E-03
            1838               1     45.5105E-03     47.0369E-03    -26.1340E-03    -26.9581E-03
            1839               1     51.4692E-03     52.1287E-03    -28.5708E-03    -29.0300E-03
            1840               1     58.9864E-03     58.8836E-03    -28.4266E-03    -28.3825E-03
            1841               1     68.4984E-03     67.8006E-03    -26.4428E-03    -26.0474E-03
            1842               1     78.2579E-03     77.7611E-03    -21.7924E-03    -20.9566E-03
            1843               1     90.6544E-03     88.2505E-03    -14.4142E-03    -13.7661E-03
            1844               1     56.7859E-03     55.9986E-03    -16.2374E-03    -16.1499E-03
            1845               1     47.3821E-03     49.0481E-03    -21.9635E-03    -22.6098E-03
            1846               1     45.7538E-03     47.2843E-03    -26.0047E-03    -26.8603E-03
            1847               1     50.7950E-03     52.2848E-03    -28.3959E-03    -29.4846E-03
            1848               1     60.3966E-03     61.5299E-03    -28.7797E-03    -29.6332E-03
            1849               1     70.3770E-03     70.3896E-03    -26.3067E-03    -25.9047E-03
            1850               1     83.8236E-03     82.3206E-03    -22.0989E-03    -21.4080E-03
            1851               1     97.6311E-03     96.9111E-03    -15.6049E-03    -14.4606E-03
            1852               1     61.2201E-03     62.8455E-03    -15.2202E-03    -15.2529E-03
            1853               1     50.8637E-03     51.3672E-03    -21.8528E-03    -21.9638E-03
            1854               1     47.2101E-03     49.4656E-03    -26.5317E-03    -27.5244E-03
            1855               1     49.4495E-03     51.0958E-03    -27.4598E-03    -28.7472E-03
            1856               1     57.8824E-03     59.4436E-03    -27.5119E-03    -29.3201E-03
            1857               1     74.3869E-03     75.9260E-03    -27.5045E-03    -28.7344E-03
            1858               1     88.5141E-03     88.9593E-03    -22.9219E-03    -21.3701E-03
            1859               1     106.256E-03     102.687E-03    -15.4056E-03    -14.0195E-03
            1860               1     72.3815E-03     70.5448E-03    -16.7945E-03    -15.8453E-03
            1861               1     56.5637E-03     58.3451E-03    -24.6148E-03    -24.1479E-03
            1862               1     43.4383E-03     45.5593E-03    -24.5951E-03    -25.4331E-03
            1863               1     44.5329E-03     46.6763E-03    -24.8576E-03    -26.5794E-03
            1864               1     56.1419E-03     56.0544E-03    -25.5910E-03    -27.0463E-03
            1865               1     70.8645E-03     70.4839E-03    -26.1022E-03    -28.5882E-03
            1866               1     97.0881E-03     97.6632E-03    -27.0019E-03    -28.6844E-03
            1867               1     115.898E-03     118.372E-03    -19.5144E-03    -17.0571E-03
            1868               1     79.5130E-03     81.7250E-03    -23.7155E-03    -21.2688E-03
            1869               1     50.1674E-03     51.6226E-03    -22.4047E-03    -22.4091E-03
            1870               1     36.0630E-03     37.9293E-03    -20.0100E-03    -20.5998E-03
            1871               1     37.7200E-03     37.3642E-03    -20.6157E-03    -21.0953E-03
            1872               1     49.3791E-03     46.9516E-03    -21.5762E-03    -22.6736E-03
            1873               1     67.8223E-03     61.7135E-03    -22.6210E-03    -23.3139E-03
            1874               1     92.6604E-03     84.0927E-03    -27.4132E-03    -29.8069E-03
            1875               1     135.514E-03     120.983E-03    -30.5096E-03    -31.2813E-03
            1876               1     45.0856E-03     29.3644E-03    -16.0520E-03    -14.0767E-03
            1877               1     50.0007E-03     41.0409E-03    -25.6088E-03    -22.9620E-03
            1878               1     47.2583E-03     45.7474E-03    -27.2422E-03    -26.0177E-03
            1879               1     53.4631E-03     53.2828E-03    -28.4812E-03    -26.8060E-03
            1880               1     62.1016E-03     61.8797E-03    -25.7681E-03    -24.6457E-03
            1881               1     75.3747E-03     73.2232E-03    -21.8622E-03    -20.7220E-03
            1882               1     87.6556E-03     83.4180E-03    -13.0585E-03    -12.1745E-03
            1883               1     101.070E-03     98.6179E-03     1.22793E-03    -1.16605E-03
            1884               1     45.5860E-03     54.1560E-03    -15.0709E-03    -18.6040E-03
            1885               1     47.1435E-03     42.4898E-03    -24.2275E-03    -21.3286E-03
            1886               1     45.9419E-03     39.9143E-03    -26.4361E-03    -22.8452E-03
            1887               1     50.6651E-03     47.6513E-03    -25.9469E-03    -23.1357E-03
            1888               1     64.3215E-03     62.6109E-03    -24.7863E-03    -21.7921E-03
            1889               1     80.4157E-03     79.8859E-03    -20.8794E-03    -18.7388E-03
            1890               1     99.9255E-03     102.357E-03    -15.5615E-03    -15.1865E-03
            1891               1     116.958E-03     117.554E-03    -9.47520E-03    -12.2899E-03
            1892               1     55.7543E-03     54.9361E-03    -14.4967E-03    -17.1134E-03
            1893               1     43.3815E-03     46.6176E-03    -21.5936E-03    -22.5714E-03
            1894               1     44.2819E-03     39.8410E-03    -25.4994E-03    -22.9233E-03
            1895               1     51.8617E-03     47.7007E-03    -26.0469E-03    -22.9290E-03
            1896               1     67.1758E-03     65.1054E-03    -24.8346E-03    -22.2082E-03
            1897               1     86.8023E-03     87.4748E-03    -22.3025E-03    -20.3779E-03
            1898               1     106.406E-03     107.873E-03    -19.0537E-03    -19.6192E-03
            1899               1     124.086E-03     124.013E-03    -12.2440E-03    -13.2747E-03
            1900               1     60.2104E-03     61.9465E-03    -15.1562E-03    -16.3544E-03
            1901               1     44.9596E-03     45.7087E-03    -20.5758E-03    -21.1017E-03
            1902               1     42.6656E-03     41.8048E-03    -24.5401E-03    -24.1238E-03
            1903               1     52.9396E-03     49.3701E-03    -26.1907E-03    -24.1716E-03
            1904               1     69.9315E-03     68.4158E-03    -25.4904E-03    -23.5243E-03
            1905               1     90.9198E-03     90.5833E-03    -23.8646E-03    -22.8215E-03
            1906               1     111.029E-03     110.888E-03    -19.2400E-03    -18.9445E-03
            1907               1     133.205E-03     131.631E-03    -12.3985E-03    -13.1254E-03
            1908               1     66.7528E-03     65.9068E-03    -14.9403E-03    -15.9637E-03
            1909               1     47.3566E-03     48.8632E-03    -20.7269E-03    -21.3727E-03
            1910               1     42.1210E-03     41.9146E-03    -24.2514E-03    -24.1365E-03
            1911               1     53.0061E-03     51.7006E-03    -26.1585E-03    -25.6025E-03
            1912               1     72.3535E-03     70.7802E-03    -26.2841E-03    -25.2172E-03
            1913               1     93.3796E-03     92.5899E-03    -23.7855E-03    -22.8959E-03
            1914               1     116.996E-03     115.893E-03    -19.7869E-03    -19.4058E-03
            1915               1     141.066E-03     138.627E-03    -13.2293E-03    -12.9756E-03
            1916               1     71.7859E-03     71.5033E-03    -15.5579E-03    -15.7044E-03
            1917               1     50.3178E-03     51.2494E-03    -20.4612E-03    -21.1415E-03
            1918               1     42.7030E-03     43.7304E-03    -24.4514E-03    -25.0643E-03
            1919               1     53.0512E-03     52.6213E-03    -26.3982E-03    -26.4149E-03
            1920               1     73.0637E-03     72.6026E-03    -26.2702E-03    -26.1521E-03
            1921               1     97.2377E-03     96.2535E-03    -24.3191E-03    -23.6537E-03
            1922               1     121.752E-03     120.064E-03    -19.7019E-03    -19.0889E-03
            1923               1     147.827E-03     145.905E-03    -13.4306E-03    -13.1010E-03
            1924               1     77.6930E-03     77.2548E-03    -14.9563E-03    -15.2640E-03
            1925               1     54.1394E-03     54.8657E-03    -20.8585E-03    -21.3353E-03
            1926               1     43.1128E-03     44.9423E-03    -24.4855E-03    -25.4756E-03
            1927               1     52.7903E-03     53.9973E-03    -26.5213E-03    -27.5499E-03
            1928               1     74.1753E-03     74.1823E-03    -26.4996E-03    -26.8099E-03
            1929               1     99.9003E-03     99.4695E-03    -24.4922E-03    -24.4408E-03
            1930               1     127.183E-03     126.232E-03    -20.2372E-03    -19.3591E-03
            1931               1     155.987E-03     152.446E-03    -13.3222E-03    -12.5460E-03
            1932               1     83.7894E-03     82.8606E-03    -15.6291E-03    -14.9220E-03
            1933               1     57.3245E-03     58.9324E-03    -20.6525E-03    -21.2177E-03
            1934               1     43.2299E-03     45.4062E-03    -24.1620E-03    -25.3648E-03
            1935               1     51.8448E-03     53.9449E-03    -26.5582E-03    -28.4541E-03
            1936               1     75.7558E-03     77.8097E-03    -26.9479E-03    -28.7594E-03
            1937               1     102.277E-03     102.826E-03    -24.5460E-03    -24.3642E-03
            1938               1     132.334E-03     130.768E-03    -20.7149E-03    -20.0029E-03
            1939               1     162.188E-03     160.775E-03    -14.9870E-03    -13.4751E-03
            1940               1     88.3960E-03     89.3411E-03    -14.3155E-03    -13.6408E-03
            1941               1     60.8268E-03     61.9738E-03    -20.1201E-03    -19.8918E-03
            1942               1     44.8636E-03     48.9112E-03    -24.5923E-03    -26.4643E-03
            1943               1     50.3928E-03     53.2518E-03    -25.3531E-03    -27.8959E-03
            1944               1     72.6793E-03     74.3968E-03    -25.7989E-03    -28.8208E-03
            1945               1     106.558E-03     109.202E-03    -26.4283E-03    -28.6366E-03
            1946               1     136.842E-03     138.344E-03    -21.8958E-03    -19.8152E-03
            1947               1     170.098E-03     165.592E-03    -14.8296E-03    -12.8274E-03
            1948               1     98.5386E-03     97.6718E-03    -15.9442E-03    -13.7337E-03
            1949               1     66.3278E-03     69.7485E-03    -22.7215E-03    -22.8587E-03
            1950               1     39.4951E-03     43.6577E-03    -21.8441E-03    -23.8503E-03
            1951               1     44.0949E-03     46.9556E-03    -22.2411E-03    -25.1545E-03
            1952               1     70.9426E-03     70.6239E-03    -23.3757E-03    -26.1154E-03
            1953               1     101.161E-03     99.6405E-03    -25.2717E-03    -29.0744E-03
            1954               1     145.558E-03     146.589E-03    -28.0380E-03    -30.3464E-03
            1955               1     179.441E-03     182.789E-03    -20.8664E-03    -16.9581E-03
            1956               1     104.267E-03     103.353E-03    -24.2913E-03    -21.7219E-03
            1957               1     57.6374E-03     57.4724E-03    -19.4524E-03    -20.1519E-03
            1958               1     30.3132E-03     32.4460E-03    -15.8450E-03    -16.8950E-03
            1959               1     35.3364E-03     34.6304E-03    -16.0827E-03    -17.1554E-03
            1960               1     62.5429E-03     57.6359E-03    -18.1043E-03    -19.8096E-03
            1961               1     96.9089E-03     87.2936E-03    -20.6059E-03    -21.8429E-03
            1962               1     136.572E-03     122.685E-03    -29.4384E-03    -32.7692E-03
            1963               1     199.509E-03     179.166E-03    -37.9991E-03    -38.2701E-03
            1964               1     67.6264E-03     44.7499E-03    -13.2807E-03    -11.4026E-03
            1965               1     57.6936E-03     43.4256E-03    -25.5168E-03    -22.1530E-03
            1966               1     48.8864E-03     46.3914E-03    -28.1141E-03    -26.4108E-03
            1967               1     59.6900E-03     59.7824E-03    -29.4376E-03    -27.1821E-03
            1968               1     79.0575E-03     77.6429E-03    -25.6164E-03    -23.8951E-03
            1969               1     106.072E-03     101.264E-03    -20.3606E-03    -18.7177E-03
            1970               1     132.470E-03     123.540E-03    -7.69212E-03    -5.88776E-03
            1971               1     167.367E-03     159.202E-03     11.2517E-03     8.40278E-03
            1972               1     69.1473E-03     79.3215E-03    -13.8555E-03    -18.5574E-03
            1973               1     53.9667E-03     49.6019E-03    -23.0082E-03    -19.4504E-03
            1974               1     44.8367E-03     36.7159E-03    -25.7152E-03    -20.9352E-03
            1975               1     55.2076E-03     51.3700E-03    -24.9161E-03    -20.8945E-03
            1976               1     82.6254E-03     80.8060E-03    -23.2183E-03    -19.0115E-03
            1977               1     112.685E-03     111.471E-03    -18.0559E-03    -14.6450E-03
            1978               1     149.492E-03     152.497E-03    -11.0697E-03    -10.1183E-03
            1979               1     181.091E-03     182.376E-03    -5.79813E-03    -10.0108E-03
            1980               1     80.7783E-03     78.9384E-03    -13.5064E-03    -16.7811E-03
            1981               1     50.3718E-03     55.1072E-03    -20.3824E-03    -21.5926E-03
            1982               1     41.6080E-03     35.5976E-03    -23.8789E-03    -20.3489E-03
            1983               1     56.6527E-03     51.7145E-03    -24.2752E-03    -19.9540E-03
            1984               1     85.9457E-03     83.7222E-03    -22.6749E-03    -18.8480E-03
            1985               1     121.443E-03     123.117E-03    -19.5041E-03    -16.6993E-03
            1986               1     155.557E-03     157.887E-03    -16.8325E-03    -17.9674E-03
            1987               1     187.229E-03     186.172E-03    -10.6062E-03    -12.2343E-03
            1988               1     84.4895E-03     86.2924E-03    -13.9815E-03    -15.5581E-03
            1989               1     52.7030E-03     53.5038E-03    -19.0360E-03    -19.5239E-03
            1990               1     39.8278E-03     38.1935E-03    -22.7857E-03    -22.0100E-03
            1991               1     57.7869E-03     53.0009E-03    -24.1314E-03    -21.2710E-03
            1992               1     89.7243E-03     88.4904E-03    -23.1759E-03    -20.4007E-03
            1993               1     125.617E-03     125.723E-03    -21.8623E-03    -20.6371E-03
            1994               1     160.179E-03     159.814E-03    -17.3730E-03    -17.1461E-03
            1995               1     196.140E-03     193.913E-03    -10.7286E-03    -11.9120E-03
            1996               1     91.2968E-03     89.7706E-03    -13.8662E-03    -15.0184E-03
            1997               1     55.1143E-03     56.8292E-03    -19.1532E-03    -19.8112E-03
            1998               1     38.9673E-03     38.2769E-03    -22.3656E-03    -21.9937E-03
            1999               1     58.3045E-03     56.2684E-03    -24.0768E-03    -23.1685E-03
            2000               1     92.4012E-03     90.6523E-03    -24.2369E-03    -22.8661E-03
            2001               1     128.140E-03     127.322E-03    -21.7891E-03    -20.7050E-03
            2002               1     166.110E-03     164.728E-03    -18.1387E-03    -17.8465E-03
            2003               1     203.968E-03     200.304E-03    -12.1371E-03    -11.9671E-03
            2004               1     95.5574E-03     95.0909E-03    -14.4591E-03    -14.5909E-03
            2005               1     58.5713E-03     59.3978E-03    -18.9357E-03    -19.5914E-03
            2006               1     39.6500E-03     40.5383E-03    -22.5971E-03    -23.1898E-03
            2007               1     58.3758E-03     57.4652E-03    -24.3966E-03    -24.3917E-03
            2008               1     93.1662E-03     92.4866E-03    -24.2686E-03    -24.1289E-03
            2009               1     132.158E-03     131.043E-03    -22.4648E-03    -21.7792E-03
            2010               1     170.584E-03     168.320E-03    -18.1763E-03    -17.5388E-03
            2011               1     209.939E-03     207.225E-03    -12.3318E-03    -11.9876E-03
            2012               1     101.651E-03     100.634E-03    -13.8868E-03    -14.0202E-03
            2013               1     62.4312E-03     63.2650E-03    -19.3314E-03    -19.7585E-03
            2014               1     40.0711E-03     42.2689E-03    -22.6851E-03    -23.8855E-03
            2015               1     58.0146E-03     59.0132E-03    -24.5946E-03    -25.9363E-03
            2016               1     94.3285E-03     94.2079E-03    -24.5383E-03    -25.1132E-03
            2017               1     134.565E-03     134.053E-03    -22.8024E-03    -22.8988E-03
            2018               1     175.787E-03     174.573E-03    -18.7847E-03    -17.7801E-03
            2019               1     217.966E-03     213.211E-03    -12.2708E-03    -11.3654E-03
            2020               1     107.044E-03     106.170E-03    -14.5969E-03    -13.4831E-03
            2021               1     65.9250E-03     67.7830E-03    -19.1087E-03    -19.6639E-03
            2022               1     40.0544E-03     42.7610E-03    -22.2228E-03    -23.7602E-03
            2023               1     56.3699E-03     58.3887E-03    -24.6239E-03    -27.3129E-03
            2024               1     95.9150E-03     98.2424E-03    -25.2687E-03    -27.8413E-03
            2025               1     136.806E-03     137.734E-03    -22.8548E-03    -22.8302E-03
            2026               1     180.488E-03     178.675E-03    -19.4982E-03    -18.6697E-03
            2027               1     223.250E-03     221.238E-03    -14.4500E-03    -12.4534E-03
            2028               1     111.636E-03     112.067E-03    -13.1785E-03    -11.7839E-03
            2029               1     69.2029E-03     71.3106E-03    -18.1841E-03    -17.7227E-03
            2030               1     41.5366E-03     47.3268E-03    -22.4643E-03    -25.2435E-03
            2031               1     54.9397E-03     58.1507E-03    -23.2497E-03    -26.9477E-03
            2032               1     91.9224E-03     93.3457E-03    -24.0835E-03    -28.2577E-03
            2033               1     140.978E-03     144.349E-03    -25.4782E-03    -28.5199E-03
            2034               1     184.521E-03     186.912E-03    -20.9698E-03    -18.3191E-03
            2035               1     230.423E-03     224.990E-03    -14.3402E-03    -11.6787E-03
            2036               1     120.481E-03     120.864E-03    -14.8218E-03    -11.4126E-03
            2037               1     74.5447E-03     79.2230E-03    -20.5148E-03    -21.2669E-03
            2038               1     34.8735E-03     40.8529E-03    -18.9789E-03    -22.1187E-03
            2039               1     47.3305E-03     50.0576E-03    -19.6073E-03    -23.6949E-03
            2040               1     89.9581E-03     89.0287E-03    -21.2791E-03    -25.1952E-03
            2041               1     133.426E-03     130.836E-03    -24.5092E-03    -29.5265E-03
            2042               1     193.145E-03     194.589E-03    -29.1038E-03    -31.9447E-03
            2043               1     239.447E-03     243.616E-03    -22.2056E-03    -16.8694E-03
            2044               1     124.950E-03     120.716E-03    -24.1544E-03    -21.4740E-03
            2045               1     64.6149E-03     61.9874E-03    -16.2155E-03    -17.5695E-03
            2046               1     24.2893E-03     26.2906E-03    -11.7077E-03    -13.2239E-03
            2047               1     38.3950E-03     37.0135E-03    -11.7521E-03    -13.3873E-03
            2048               1     80.2314E-03     73.1601E-03    -14.8818E-03    -17.1683E-03
            2049               1     127.777E-03     115.070E-03    -18.8420E-03    -20.5693E-03
            2050               1     179.697E-03     161.080E-03    -31.4759E-03    -35.6646E-03
            2051               1     259.785E-03     234.173E-03    -45.1147E-03    -44.9169E-03
            2052               1     91.0150E-03     66.4841E-03    -11.0951E-03    -9.53067E-03
            2053               1     66.4821E-03     49.3039E-03    -25.4480E-03    -21.8251E-03
            2054               1     51.9673E-03     48.8487E-03    -29.7802E-03    -27.9047E-03
            2055               1     67.2771E-03     67.7357E-03    -30.7079E-03    -28.1933E-03
            2056               1     97.5877E-03     95.3529E-03    -26.0996E-03    -24.0190E-03
            2057               1     137.146E-03     130.413E-03    -19.4391E-03    -17.3353E-03
            2058               1     175.886E-03     163.464E-03    -2.84783E-03    -257.639E-06
            2059               1     229.192E-03     217.015E-03     20.4456E-03     16.8664E-03
            2060               1     94.1723E-03     105.271E-03    -12.6079E-03    -18.1328E-03
            2061               1     64.3281E-03     61.5461E-03    -22.4637E-03    -18.8127E-03
            2062               1     43.8023E-03     35.1574E-03    -25.0408E-03    -19.9732E-03
            2063               1     61.8106E-03     58.2393E-03    -24.6480E-03    -20.2651E-03
            2064               1     103.054E-03     101.806E-03    -22.0950E-03    -17.2194E-03
            2065               1     145.052E-03     144.119E-03    -15.8182E-03    -11.4602E-03
            2066               1     197.567E-03     201.995E-03    -7.30251E-03    -5.79424E-03
            2067               1     242.281E-03     243.832E-03    -2.40133E-03    -7.83583E-03
            2068               1     106.277E-03     104.692E-03    -12.6541E-03    -16.1666E-03
            2069               1     59.9580E-03     66.8470E-03    -19.0255E-03    -20.7917E-03
            2070               1     40.6108E-03     35.1162E-03    -23.0304E-03    -19.6517E-03
            2071               1     63.4496E-03     59.3342E-03    -22.7518E-03    -18.4679E-03
            2072               1     106.232E-03     105.468E-03    -21.3811E-03    -17.4522E-03
            2073               1     156.793E-03     160.873E-03    -17.3843E-03    -13.9840E-03
            2074               1     203.049E-03     206.797E-03    -15.0027E-03    -16.3903E-03
            2075               1     246.049E-03     245.431E-03    -9.77171E-03    -11.6513E-03
            2076               1     110.468E-03     112.914E-03    -11.6359E-03    -13.2765E-03
            2077               1     63.7459E-03     65.8677E-03    -17.7767E-03    -18.4414E-03
            2078               1     36.8946E-03     37.1627E-03    -20.9351E-03    -21.1777E-03
            2079               1     64.6466E-03     61.2951E-03    -22.9281E-03    -21.2445E-03
            2080               1     110.927E-03     111.961E-03    -21.3506E-03    -19.1882E-03
            2081               1     160.214E-03     162.952E-03    -20.9832E-03    -20.3448E-03
            2082               1     207.687E-03     209.702E-03    -16.7225E-03    -15.8216E-03
            2083               1     256.227E-03     252.645E-03    -9.35379E-03    -10.0233E-03
            2084               1     117.384E-03     116.587E-03    -12.4463E-03    -12.2689E-03
            2085               1     65.1462E-03     69.6328E-03    -16.5018E-03    -17.4892E-03
            2086               1     35.6246E-03     37.0073E-03    -20.0605E-03    -20.9002E-03
            2087               1     63.2915E-03     62.6615E-03    -21.9106E-03    -23.7121E-03
            2088               1     113.882E-03     116.010E-03    -23.7374E-03    -25.2324E-03
            2089               1     162.133E-03     165.223E-03    -20.8390E-03    -19.9784E-03
            2090               1     213.256E-03     213.261E-03    -18.2167E-03    -17.3990E-03
            2091               1     262.077E-03     260.258E-03    -14.1744E-03    -11.8428E-03
            2092               1     120.656E-03     121.995E-03    -10.9213E-03    -9.33030E-03
            2093               1     68.6574E-03     72.3043E-03    -15.4812E-03    -15.1893E-03
            2094               1     34.8588E-03     41.2906E-03    -19.2594E-03    -22.4435E-03
            2095               1     62.7021E-03     64.0122E-03    -21.0547E-03    -24.6925E-03
            2096               1     108.906E-03     109.709E-03    -21.9099E-03    -26.0971E-03
            2097               1     167.005E-03     171.265E-03    -24.5951E-03    -27.6122E-03
            2098               1     216.682E-03     220.564E-03    -20.3036E-03    -16.9741E-03
            2099               1     268.389E-03     263.157E-03    -13.7115E-03    -10.3495E-03
            2100               1     128.680E-03     130.018E-03    -12.7560E-03    -8.72720E-03
            2101               1     73.2684E-03     79.5067E-03    -16.9823E-03    -18.2418E-03
            2102               1     28.0764E-03     35.1365E-03    -15.7820E-03    -19.5405E-03
            2103               1     53.8425E-03     54.6100E-03    -16.5105E-03    -21.1870E-03
            2104               1     107.270E-03     105.150E-03    -19.3755E-03    -23.6408E-03
            2105               1     157.349E-03     154.012E-03    -23.5825E-03    -29.0836E-03
            2106               1     225.360E-03     227.198E-03    -29.6580E-03    -32.5610E-03
            2107               1     278.004E-03     282.779E-03    -23.2621E-03    -16.5462E-03
            2108               1     130.892E-03     125.559E-03    -21.9264E-03    -18.9669E-03
            2109               1     63.6677E-03     59.9997E-03    -12.3601E-03    -14.1047E-03
            2110               1     15.3386E-03     17.8624E-03    -7.36456E-03    -9.25001E-03
            2111               1     46.5539E-03     43.4235E-03    -8.05890E-03    -9.96449E-03
            2112               1     96.3611E-03     87.0256E-03    -12.1025E-03    -14.6951E-03
            2113               1     150.961E-03     135.704E-03    -17.4847E-03    -19.4185E-03
            2114               1     208.997E-03     187.069E-03    -32.8269E-03    -37.4195E-03
            2115               1     298.080E-03     269.239E-03    -49.6925E-03    -48.9797E-03
            2116               1     1.31866E-03     1.29692E-03     662.124E-06     671.121E-06
            2117               1     1.47950E-03     1.49277E-03     849.937E-06     860.413E-06
            2118               1     1.49012E-03     1.49996E-03     858.553E-06     865.142E-06
            2119               1     1.46744E-03     1.47904E-03     846.963E-06     853.777E-06
            2120               1     1.46744E-03     1.47904E-03     846.963E-06     853.777E-06
            2121               1     1.49012E-03     1.49996E-03     858.553E-06     865.142E-06
            2122               1     1.47950E-03     1.49277E-03     849.937E-06     860.413E-06
            2123               1     1.31866E-03     1.29692E-03     662.124E-06     671.121E-06
            2124               1     1.13934E-03     1.14240E-03     645.630E-06     646.128E-06
            2125               1     1.60224E-03     1.63503E-03     920.355E-06     938.865E-06
            2126               1     1.49321E-03     1.51492E-03     860.521E-06     873.167E-06
            2127               1     1.48496E-03     1.50907E-03     857.121E-06     871.054E-06
            2128               1     1.48496E-03     1.50907E-03     857.121E-06     871.054E-06
            2129               1     1.49321E-03     1.51492E-03     860.521E-06     873.167E-06
            2130               1     1.60224E-03     1.63503E-03     920.355E-06     938.865E-06
            2131               1     1.13934E-03     1.14240E-03     645.630E-06     646.128E-06
            2132               1     1.09082E-03     1.09577E-03     613.583E-06     623.502E-06
            2133               1     1.46649E-03     1.47566E-03     840.274E-06     842.676E-06
            2134               1     1.52551E-03     1.53988E-03     879.378E-06     886.638E-06
            2135               1     1.51167E-03     1.52469E-03     872.668E-06     880.056E-06
            2136               1     1.51167E-03     1.52469E-03     872.668E-06     880.056E-06
            2137               1     1.52551E-03     1.53988E-03     879.378E-06     886.638E-06
            2138               1     1.46649E-03     1.47566E-03     840.274E-06     842.676E-06
            2139               1     1.09082E-03     1.09577E-03     613.583E-06     623.502E-06
            3835               1     98.4989E-03     91.8004E-03     41.4385E-03     43.6689E-03
            3836               1     88.2135E-03     94.3280E-03     50.5353E-03     53.2949E-03
            3837               1     109.635E-03     113.317E-03     55.4205E-03     56.5153E-03
            3838               1     140.220E-03     142.866E-03     61.5932E-03     63.1793E-03
            3839               1     170.908E-03     170.203E-03     68.1072E-03     69.8293E-03
            3840               1     205.173E-03     200.703E-03     72.3587E-03     74.1354E-03
            3841               1     250.559E-03     241.822E-03     85.3896E-03     89.4694E-03
            3842               1     337.754E-03     319.326E-03     89.3041E-03     88.2425E-03
            3843               1     78.1355E-03     79.8315E-03     40.4626E-03     39.1164E-03
            3844               1     104.144E-03     109.201E-03     59.3226E-03     62.4512E-03
            3845               1     130.517E-03     135.807E-03     65.3349E-03     68.7534E-03
            3846               1     156.204E-03     159.322E-03     70.3871E-03     73.1695E-03
            3847               1     186.916E-03     190.762E-03     74.9250E-03     78.4288E-03
            3848               1     212.359E-03     215.686E-03     77.7728E-03     82.4813E-03
            3849               1     262.640E-03     268.245E-03     81.2391E-03     84.4727E-03
            3850               1     288.435E-03     289.767E-03     56.8138E-03     53.8478E-03
            3851               1     73.7210E-03     72.9407E-03     41.7645E-03     41.4645E-03
            3852               1     111.672E-03     110.008E-03     61.5575E-03     61.7313E-03
            3853               1     143.413E-03     144.965E-03     72.4736E-03     74.8070E-03
            3854               1     170.322E-03     173.333E-03     77.0073E-03     79.5915E-03
            3855               1     190.123E-03     193.440E-03     77.0530E-03     79.8434E-03
            3856               1     222.356E-03     229.866E-03     79.1898E-03     82.6263E-03
            3857               1     238.287E-03     241.310E-03     65.5368E-03     65.0114E-03
            3858               1     252.014E-03     249.992E-03     42.8127E-03     43.8168E-03
            3859               1     77.8937E-03     79.0349E-03     43.8429E-03     45.2479E-03
            3860               1     123.380E-03     122.523E-03     66.0621E-03     66.4600E-03
            3861               1     154.555E-03     152.752E-03     77.8789E-03     78.1514E-03
            3862               1     169.993E-03     169.588E-03     77.9807E-03     79.1919E-03
            3863               1     193.939E-03     195.369E-03     78.0660E-03     78.8145E-03
            3864               1     210.222E-03     212.460E-03     71.0321E-03     70.5559E-03
            3865               1     222.348E-03     226.980E-03     61.4207E-03     64.0591E-03
            3866               1     227.528E-03     227.221E-03     42.2855E-03     43.9522E-03
            3867               1     97.8267E-03     100.533E-03     50.7823E-03     52.9167E-03
            3868               1     144.443E-03     142.975E-03     76.0558E-03     76.5107E-03
            3869               1     154.158E-03     152.264E-03     78.7575E-03     79.0320E-03
            3870               1     170.813E-03     167.705E-03     78.7152E-03     78.0663E-03
            3871               1     183.893E-03     180.673E-03     73.9485E-03     73.0802E-03
            3872               1     197.674E-03     194.535E-03     66.5655E-03     65.0709E-03
            3873               1     206.414E-03     207.879E-03     54.6066E-03     54.1821E-03
            3874               1     202.078E-03     204.816E-03     33.8876E-03     39.0492E-03
            3875               1     137.176E-03     135.519E-03     63.9838E-03     65.9018E-03
            3876               1     149.830E-03     149.364E-03     80.3555E-03     81.1019E-03
            3877               1     158.071E-03     155.488E-03     80.5117E-03     80.0394E-03
            3878               1     168.974E-03     165.822E-03     80.1155E-03     79.8653E-03
            3879               1     176.925E-03     171.659E-03     73.7590E-03     73.0282E-03
            3880               1     182.348E-03     174.781E-03     63.4797E-03     62.5915E-03
            3881               1     180.592E-03     168.901E-03     46.0036E-03     44.4148E-03
            3882               1     162.305E-03     153.256E-03     17.3142E-03     20.0989E-03
            3883               1     68.6606E-03     67.1638E-03     30.6304E-03     30.5248E-03
            3884               1     81.5225E-03     79.7708E-03     30.6304E-03     30.5248E-03
            3885               1     96.1679E-03     94.2682E-03     30.6304E-03     30.5248E-03
            3886               1     111.899E-03     109.910E-03     30.6304E-03     30.5248E-03
            3887               1     128.316E-03     126.273E-03     30.6304E-03     30.5248E-03
            3888               1     145.188E-03     143.108E-03     30.6304E-03     30.5248E-03
            3889               1     162.372E-03     160.268E-03     30.6304E-03     30.5248E-03
            3890               1     179.779E-03     177.659E-03     30.6304E-03     30.5248E-03
            3891               1     147.045E-03     104.429E-03     34.0602E-03     34.7628E-03
            3892               1     87.3166E-03     58.5658E-03     29.6221E-03     31.1221E-03
            3893               1     47.9065E-03     49.6213E-03     24.5545E-03     25.3965E-03
            3894               1     52.1707E-03     85.5836E-03     24.1987E-03     25.5381E-03
            3895               1     93.1088E-03     129.665E-03     24.6033E-03     25.6093E-03
            3896               1     142.929E-03     178.025E-03     25.5614E-03     26.7142E-03
            3897               1     193.069E-03     225.226E-03     34.5656E-03     35.8264E-03
            3898               1     265.150E-03     292.895E-03     52.2844E-03     53.0836E-03
            3899               1     73.8141E-03     121.989E-03     19.6656E-03     19.9756E-03
            3900               1     73.6738E-03     105.405E-03     39.6610E-03     41.1188E-03
            3901               1     75.2173E-03     75.5696E-03     40.7012E-03     41.7209E-03
            3902               1     103.821E-03     80.0405E-03     41.8921E-03     43.0718E-03
            3903               1     143.508E-03     110.351E-03     41.7372E-03     42.7854E-03
            3904               1     184.826E-03     150.262E-03     39.3244E-03     40.6722E-03
            3905               1     232.245E-03     197.849E-03     35.4236E-03     36.0684E-03
            3906               1     259.670E-03     227.293E-03    -138.184E-06     1.93476E-03
            3907               1     117.146E-03     81.8813E-03     22.4388E-03     28.4733E-03
            3908               1     51.8804E-03     46.8752E-03     21.4803E-03     26.7360E-03
            3909               1     42.9666E-03     57.5313E-03     23.0498E-03     23.8048E-03
            3910               1     76.3215E-03     96.7373E-03     24.4233E-03     26.1016E-03
            3911               1     120.118E-03     136.728E-03     31.5775E-03     33.2886E-03
            3912               1     166.933E-03     179.049E-03     35.5708E-03     38.1898E-03
            3913               1     221.227E-03     227.113E-03     53.4337E-03     56.6133E-03
            3914               1     309.043E-03     309.912E-03     67.8033E-03     62.9459E-03
            3915               1     86.3811E-03     96.5790E-03     22.9658E-03     17.9621E-03
            3916               1     58.3410E-03     65.5599E-03     29.7730E-03     34.4187E-03
            3917               1     60.8660E-03     71.9147E-03     31.6342E-03     35.2980E-03
            3918               1     93.5321E-03     102.438E-03     34.7688E-03     37.0080E-03
            3919               1     137.620E-03     149.218E-03     35.8992E-03     39.2368E-03
            3920               1     180.497E-03     193.913E-03     42.0497E-03     47.6637E-03
            3921               1     243.237E-03     255.714E-03     47.2161E-03     50.6141E-03
            3922               1     292.046E-03     292.150E-03     32.0238E-03     31.7798E-03
            3923               1     80.3695E-03     76.6279E-03     24.5806E-03     19.5469E-03
            3924               1     65.2809E-03     59.8941E-03     36.1435E-03     31.5818E-03
            3925               1     74.2208E-03     76.4198E-03     38.7679E-03     41.5334E-03
            3926               1     105.394E-03     106.741E-03     38.3737E-03     40.8435E-03
            3927               1     143.880E-03     144.047E-03     39.0763E-03     40.1980E-03
            3928               1     194.603E-03     202.427E-03     39.4831E-03     40.9513E-03
            3929               1     233.252E-03     243.869E-03     31.8582E-03     36.6465E-03
            3930               1     267.354E-03     267.239E-03     19.4475E-03     25.5852E-03
            3931               1     73.0139E-03     70.8434E-03     28.2240E-03     28.0666E-03
            3932               1     70.2204E-03     72.7142E-03     39.2859E-03     40.2695E-03
            3933               1     84.3708E-03     76.3243E-03     42.9062E-03     41.9696E-03
            3934               1     110.969E-03     100.686E-03     42.3468E-03     42.3067E-03
            3935               1     150.152E-03     141.249E-03     40.3930E-03     40.9277E-03
            3936               1     186.961E-03     175.054E-03     32.6911E-03     29.7140E-03
            3937               1     227.023E-03     225.572E-03     23.9193E-03     22.3788E-03
            3938               1     253.674E-03     264.018E-03     13.9198E-03     21.3219E-03
            3939               1     48.9985E-03     70.7393E-03     26.2805E-03     32.6861E-03
            3940               1     78.8568E-03     82.2227E-03     45.0135E-03     46.2355E-03
            3941               1     95.0639E-03     85.5097E-03     48.7099E-03     47.6848E-03
            3942               1     122.178E-03     106.379E-03     49.7189E-03     49.6677E-03
            3943               1     148.240E-03     126.063E-03     43.0485E-03     42.0474E-03
            3944               1     180.064E-03     154.852E-03     34.9226E-03     34.5310E-03
            3945               1     209.967E-03     175.152E-03     16.8932E-03     12.2134E-03
            3946               1     249.096E-03     209.905E-03    -10.6863E-03    -11.2842E-03
            5375               1     1.98144E-03     1.90029E-03    -734.011E-06    -737.678E-06
            5376               1     1.60435E-03     1.60484E-03    -836.023E-06    -858.399E-06
            5377               1     1.46903E-03     1.47393E-03    -819.659E-06    -827.981E-06
            5378               1     1.47454E-03     1.49143E-03    -849.145E-06    -859.593E-06
            5379               1     1.47454E-03     1.49143E-03    -849.145E-06    -859.593E-06
            5380               1     1.46903E-03     1.47393E-03    -819.659E-06    -827.981E-06
            5381               1     1.60435E-03     1.60484E-03    -836.023E-06    -858.399E-06
            5382               1     1.98144E-03     1.90029E-03    -734.011E-06    -737.678E-06
            5383               1     1.54863E-03     1.56093E-03    -591.551E-06    -583.099E-06
            5384               1     1.65537E-03     1.69092E-03    -858.629E-06    -878.453E-06
            5385               1     1.58649E-03     1.62771E-03    -899.069E-06    -925.024E-06
            5386               1     1.59711E-03     1.63334E-03    -919.378E-06    -940.347E-06
            5387               1     1.59711E-03     1.63334E-03    -919.378E-06    -940.347E-06
            5388               1     1.58649E-03     1.62771E-03    -899.069E-06    -925.024E-06
            5389               1     1.65537E-03     1.69092E-03    -858.629E-06    -878.453E-06
            5390               1     1.54863E-03     1.56093E-03    -591.551E-06    -583.099E-06
            5391               1     1.22733E-03     1.23003E-03    -523.044E-06    -529.491E-06
            5392               1     1.48766E-03     1.49399E-03    -793.972E-06    -792.567E-06
            5393               1     1.66306E-03     1.70377E-03    -942.568E-06    -964.104E-06
            5394               1     1.68557E-03     1.72259E-03    -972.319E-06    -993.731E-06
            5395               1     1.68557E-03     1.72259E-03    -972.319E-06    -993.731E-06
            5396               1     1.66306E-03     1.70377E-03    -942.568E-06    -964.104E-06
            5397               1     1.48766E-03     1.49399E-03    -793.972E-06    -792.567E-06
            5398               1     1.22733E-03     1.23003E-03    -523.044E-06    -529.491E-06
            5399               1     1.08635E-03     1.09415E-03    -544.015E-06    -547.998E-06
            5400               1     1.40271E-03     1.42729E-03    -778.015E-06    -791.209E-06
            5401               1     1.62712E-03     1.63858E-03    -929.599E-06    -934.877E-06
            5402               1     1.73335E-03     1.75934E-03    -999.592E-06    -1.01431E-03
            5403               1     1.73335E-03     1.75934E-03    -999.592E-06    -1.01431E-03
            5404               1     1.62712E-03     1.63858E-03    -929.599E-06    -934.877E-06
            5405               1     1.40271E-03     1.42729E-03    -778.015E-06    -791.209E-06
            5406               1     1.08635E-03     1.09415E-03    -544.015E-06    -547.998E-06
            5407               1     933.970E-06     964.032E-06    -517.777E-06    -536.915E-06
            5408               1     1.39100E-03     1.40377E-03    -793.803E-06    -800.056E-06
            5409               1     1.63362E-03     1.64501E-03    -938.157E-06    -944.259E-06
            5410               1     1.69159E-03     1.69714E-03    -975.320E-06    -978.429E-06
            5411               1     1.69159E-03     1.69714E-03    -975.320E-06    -978.429E-06
            5412               1     1.63362E-03     1.64501E-03    -938.157E-06    -944.259E-06
            5413               1     1.39100E-03     1.40377E-03    -793.803E-06    -800.056E-06
            5414               1     933.970E-06     964.032E-06    -517.777E-06    -536.915E-06
            5415               1     977.953E-06     1.01532E-03    -562.226E-06    -584.260E-06
            5416               1     1.44647E-03     1.45609E-03    -832.602E-06    -838.524E-06
            5417               1     1.57544E-03     1.57593E-03    -903.746E-06    -903.789E-06
            5418               1     1.62308E-03     1.61967E-03    -936.840E-06    -934.827E-06
            5419               1     1.62308E-03     1.61967E-03    -936.840E-06    -934.827E-06
            5420               1     1.57544E-03     1.57593E-03    -903.746E-06    -903.789E-06
            5421               1     1.44647E-03     1.45609E-03    -832.602E-06    -838.524E-06
            5422               1     977.953E-06     1.01532E-03    -562.226E-06    -584.260E-06
            5423               1     1.15698E-03     1.17003E-03    -613.081E-06    -624.962E-06
            5424               1     1.41265E-03     1.41868E-03    -813.986E-06    -817.945E-06
            5425               1     1.48399E-03     1.48003E-03    -856.034E-06    -853.773E-06
            5426               1     1.56885E-03     1.56601E-03    -905.385E-06    -903.828E-06
            5427               1     1.56885E-03     1.56601E-03    -905.385E-06    -903.828E-06
            5428               1     1.48399E-03     1.48003E-03    -856.034E-06    -853.773E-06
            5429               1     1.41265E-03     1.41868E-03    -813.986E-06    -817.945E-06
            5430               1     1.15698E-03     1.17003E-03    -613.081E-06    -624.962E-06
            6229               1     50.2854E-03     33.5001E-03    -5.46884E-03    -8.91568E-03
            6230               1     59.5198E-03     46.5457E-03    -4.35591E-03    -6.18062E-03
            6231               1     73.6643E-03     62.2102E-03    -628.730E-06    -157.650E-06
            6232               1     89.5814E-03     77.3172E-03     2.54908E-03     2.57272E-03
            6233               1     106.408E-03     92.6600E-03     7.96792E-03     9.35860E-03
            6234               1     126.194E-03     109.976E-03     12.5164E-03     13.2174E-03
            6235               1     149.218E-03     128.937E-03     22.7150E-03     26.5084E-03
            6236               1     192.952E-03     165.693E-03     31.7738E-03     33.9706E-03
            6237               1     39.2293E-03     42.2508E-03     249.201E-06     522.914E-06
            6238               1     61.7365E-03     55.1179E-03     1.63065E-03     93.0965E-06
            6239               1     78.0452E-03     69.2306E-03     3.48108E-03     3.09893E-03
            6240               1     94.4358E-03     85.9071E-03     6.15342E-03     7.88874E-03
            6241               1     113.334E-03     104.698E-03     9.63054E-03     10.7807E-03
            6242               1     130.589E-03     122.104E-03     13.3235E-03     16.6272E-03
            6243               1     157.618E-03     154.319E-03     17.4609E-03     20.2235E-03
            6244               1     172.514E-03     177.270E-03     14.1272E-03     10.4791E-03
            6245               1     44.4114E-03     39.1689E-03     3.79370E-03     4.46283E-03
            6246               1     62.1178E-03     61.4607E-03     4.69855E-03     6.33953E-03
            6247               1     81.0733E-03     76.6729E-03     6.09448E-03     6.95200E-03
            6248               1     99.5283E-03     94.4942E-03     8.52985E-03     9.37997E-03
            6249               1     115.973E-03     111.407E-03     9.75928E-03     11.7024E-03
            6250               1     136.508E-03     134.800E-03     12.3798E-03     13.5958E-03
            6251               1     152.171E-03     153.286E-03     10.5563E-03     7.69320E-03
            6252               1     169.552E-03     162.775E-03     6.79328E-03     4.45254E-03
            6253               1     44.8760E-03     44.6513E-03     5.31026E-03     6.00995E-03
            6254               1     65.2770E-03     61.8299E-03     6.46748E-03     7.96549E-03
            6255               1     83.6226E-03     82.3151E-03     7.98699E-03     9.76235E-03
            6256               1     101.291E-03     98.6003E-03     8.63636E-03     9.77773E-03
            6257               1     119.662E-03     117.933E-03     10.6579E-03     11.2760E-03
            6258               1     135.124E-03     134.593E-03     9.55198E-03     8.21196E-03
            6259               1     151.393E-03     147.777E-03     8.35740E-03     6.63896E-03
            6260               1     164.780E-03     163.461E-03     5.90262E-03     3.97716E-03
            6261               1     48.0210E-03     45.2280E-03     6.19095E-03     7.16562E-03
            6262               1     66.1678E-03     65.7275E-03     7.47524E-03     9.05516E-03
            6263               1     85.4615E-03     82.9104E-03     8.06096E-03     9.53803E-03
            6264               1     103.118E-03     102.024E-03     9.93616E-03     10.6938E-03
            6265               1     119.255E-03     118.224E-03     9.15565E-03     8.73604E-03
            6266               1     135.229E-03     132.946E-03     9.51011E-03     8.30211E-03
            6267               1     148.406E-03     147.526E-03     7.34941E-03     5.50006E-03
            6268               1     163.004E-03     158.310E-03     3.73941E-03     2.43222E-03
            6269               1     48.0575E-03     48.7022E-03     6.43818E-03     7.89740E-03
            6270               1     68.6530E-03     65.6155E-03     7.65846E-03     9.06567E-03
            6271               1     85.6053E-03     84.7064E-03     9.29846E-03     10.1695E-03
            6272               1     103.111E-03     101.536E-03     8.90571E-03     8.94065E-03
            6273               1     118.963E-03     117.665E-03     9.99860E-03     9.29225E-03
            6274               1     132.783E-03     132.298E-03     8.19792E-03     6.81354E-03
            6275               1     147.090E-03     143.912E-03     6.59239E-03     5.28164E-03
            6276               1     157.827E-03     156.455E-03     3.86863E-03     2.60683E-03
            6277               1     51.8130E-03     48.3908E-03     7.41232E-03     8.58654E-03
            6278               1     67.8262E-03     67.6369E-03     8.80044E-03     9.77407E-03
            6279               1     86.4239E-03     83.8801E-03     9.30763E-03     9.56908E-03
            6280               1     100.979E-03     100.212E-03     10.4395E-03     9.47148E-03
            6281               1     116.118E-03     116.445E-03     8.17617E-03     7.02767E-03
            6282               1     131.186E-03     130.138E-03     7.99848E-03     6.99271E-03
            6283               1     142.438E-03     142.406E-03     5.66572E-03     4.73117E-03
            6284               1     155.853E-03     151.537E-03     1.98178E-03     1.78787E-03
            6285               1     49.1526E-03     53.3421E-03     7.44821E-03     9.94226E-03
            6286               1     71.7629E-03     67.4548E-03     10.3909E-03     11.0978E-03
            6287               1     84.0805E-03     83.4210E-03     12.8361E-03     11.0026E-03
            6288               1     96.4805E-03     97.7063E-03     10.4795E-03     8.43502E-03
            6289               1     110.147E-03     111.877E-03     7.86950E-03     6.82219E-03
            6290               1     126.514E-03     128.726E-03     4.29432E-03     3.62432E-03
            6291               1     141.617E-03     139.990E-03     3.97378E-03     4.12967E-03
            6292               1     147.885E-03     149.635E-03     2.01243E-03     1.39349E-03
            6293               1     61.5080E-03     53.7212E-03     11.1201E-03     13.2611E-03
            6294               1     71.5230E-03     72.6481E-03     17.9743E-03     14.3967E-03
            6295               1     77.9244E-03     81.4326E-03     15.4085E-03     12.5170E-03
            6296               1     89.7004E-03     93.5525E-03     11.1267E-03     9.83088E-03
            6297               1     103.199E-03     107.005E-03     7.75859E-03     5.92401E-03
            6298               1     115.558E-03     119.414E-03     1.63730E-03     1.40654E-03
            6299               1     135.456E-03     139.908E-03    -4.49704E-03    -2.78155E-03
            6300               1     151.960E-03     146.061E-03    -3.59466E-03    -2.35517E-03
            6301               1     61.1731E-03     76.6556E-03     23.0555E-03     18.3052E-03
            6302               1     64.6046E-03     74.9506E-03     22.5284E-03     19.9015E-03
            6303               1     72.3150E-03     81.1019E-03     16.6168E-03     15.9774E-03
            6304               1     82.9607E-03     89.6816E-03     14.0954E-03     12.7864E-03
            6305               1     93.3597E-03     98.7482E-03     7.36149E-03     7.16670E-03
            6306               1     106.094E-03     110.294E-03     2.38080E-03     1.74381E-03
            6307               1     117.573E-03     121.945E-03    -9.61055E-03    -8.98147E-03
            6308               1     139.851E-03     148.371E-03    -22.0204E-03    -17.0262E-03
            6309               1     28.4107E-03     9.81108E-03     996.980E-06    -2.67444E-03
            6310               1     37.9730E-03     24.2398E-03     1.84144E-03    -42.6267E-06
            6311               1     49.1524E-03     38.3431E-03     3.81127E-03     4.13002E-03
            6312               1     61.7578E-03     50.4584E-03     6.05345E-03     5.89617E-03
            6313               1     74.8119E-03     62.8750E-03     9.44683E-03     10.6145E-03
            6314               1     90.1400E-03     76.0868E-03     12.3928E-03     12.9037E-03
            6315               1     108.503E-03     91.3751E-03     19.0441E-03     22.3844E-03
            6316               1     143.288E-03     119.295E-03     24.5198E-03     27.1755E-03
            6317               1     19.3733E-03     23.5127E-03     3.30049E-03     3.82623E-03
            6318               1     39.1444E-03     32.4210E-03     6.12942E-03     4.30820E-03
            6319               1     52.6589E-03     44.4654E-03     7.25580E-03     6.55019E-03
            6320               1     64.8487E-03     57.5159E-03     8.78470E-03     10.0994E-03
            6321               1     79.3089E-03     71.6639E-03     11.1210E-03     11.8581E-03
            6322               1     92.2394E-03     85.0625E-03     13.1626E-03     15.9720E-03
            6323               1     112.718E-03     109.677E-03     15.5760E-03     18.2205E-03
            6324               1     123.382E-03     128.259E-03     12.4130E-03     9.52035E-03
            6325               1     26.6286E-03     22.7185E-03     5.47882E-03     6.44171E-03
            6326               1     39.0985E-03     39.7847E-03     7.22868E-03     8.69341E-03
            6327               1     54.2308E-03     50.7087E-03     9.11188E-03     9.59547E-03
            6328               1     68.3945E-03     64.0708E-03     10.7911E-03     11.2487E-03
            6329               1     80.3048E-03     76.5291E-03     11.3806E-03     12.9152E-03
            6330               1     95.5803E-03     93.9945E-03     12.9260E-03     13.9022E-03
            6331               1     106.766E-03     107.794E-03     11.0406E-03     8.66009E-03
            6332               1     120.784E-03     114.691E-03     7.07249E-03     5.00833E-03
            6333               1     27.5855E-03     28.4136E-03     6.76915E-03     7.53743E-03
            6334               1     42.7732E-03     40.6827E-03     8.40931E-03     9.84014E-03
            6335               1     55.9566E-03     55.7380E-03     10.0555E-03     11.6061E-03
            6336               1     69.0940E-03     67.1373E-03     10.9475E-03     11.8051E-03
            6337               1     82.5868E-03     81.1574E-03     12.2549E-03     12.6464E-03
            6338               1     93.4367E-03     92.9706E-03     11.1415E-03     9.88471E-03
            6339               1     105.553E-03     102.371E-03     9.46178E-03     7.89421E-03
            6340               1     114.911E-03     114.427E-03     6.35769E-03     4.71032E-03
            6341               1     31.1199E-03     29.5015E-03     7.29725E-03     8.36564E-03
            6342               1     43.7615E-03     44.5385E-03     9.05065E-03     10.6188E-03
            6343               1     57.7792E-03     56.3386E-03     10.1234E-03     11.5310E-03
            6344               1     70.3566E-03     69.8831E-03     11.7766E-03     12.4459E-03
            6345               1     81.6663E-03     80.9130E-03     11.3084E-03     10.8730E-03
            6346               1     93.0711E-03     91.0395E-03     11.1476E-03     9.94177E-03
            6347               1     101.915E-03     101.488E-03     8.76811E-03     7.02559E-03
            6348               1     112.573E-03     108.754E-03     4.82603E-03     3.53938E-03
            6349               1     31.6902E-03     33.2482E-03     7.47046E-03     8.87370E-03
            6350               1     46.4985E-03     44.7800E-03     9.16001E-03     10.6212E-03
            6351               1     58.2049E-03     58.2869E-03     10.9468E-03     11.9329E-03
            6352               1     70.3669E-03     69.3640E-03     11.0855E-03     11.2504E-03
            6353               1     81.3376E-03     80.3078E-03     11.8661E-03     11.2171E-03
            6354               1     90.4021E-03     90.1242E-03     10.2712E-03     8.93029E-03
            6355               1     100.207E-03     97.5067E-03     8.25065E-03     6.87535E-03
            6356               1     106.858E-03     106.379E-03     4.92057E-03     3.67599E-03
            6357               1     35.7023E-03     33.5158E-03     8.13000E-03     9.26379E-03
            6358               1     46.4377E-03     47.2923E-03     9.95662E-03     11.0436E-03
            6359               1     59.3553E-03     57.8025E-03     10.9307E-03     11.4458E-03
            6360               1     69.1053E-03     68.8614E-03     12.1345E-03     11.4995E-03
            6361               1     78.7747E-03     79.2101E-03     10.5853E-03     9.71266E-03
            6362               1     88.8623E-03     87.8773E-03     10.1006E-03     9.04041E-03
            6363               1     95.4809E-03     95.8833E-03     7.65934E-03     6.62014E-03
            6364               1     104.392E-03     100.934E-03     3.70327E-03     3.25943E-03
            6365               1     33.9387E-03     38.7269E-03     7.89005E-03     10.1486E-03
            6366               1     50.4914E-03     47.5576E-03     11.0037E-03     11.8922E-03
            6367               1     58.5135E-03     58.3666E-03     13.5763E-03     12.1639E-03
            6368               1     65.7489E-03     67.2412E-03     12.0922E-03     10.4889E-03
            6369               1     74.3127E-03     76.5103E-03     10.1221E-03     9.53194E-03
            6370               1     84.4206E-03     86.5609E-03     7.50575E-03     7.12266E-03
            6371               1     94.2816E-03     92.6408E-03     6.63245E-03     6.31104E-03
            6372               1     96.4396E-03     98.8976E-03     3.86017E-03     3.02291E-03
            6373               1     45.3637E-03     39.1848E-03     10.3951E-03     12.3162E-03
            6374               1     51.8588E-03     52.7204E-03     16.9001E-03     13.6500E-03
            6375               1     54.3006E-03     57.7174E-03     15.2128E-03     12.6996E-03
            6376               1     60.9596E-03     65.3708E-03     12.1693E-03     11.3292E-03
            6377               1     68.9545E-03     73.2759E-03     9.94210E-03     8.55543E-03
            6378               1     76.0081E-03     80.8837E-03     5.37719E-03     5.69559E-03
            6379               1     87.5817E-03     92.2338E-03     812.341E-06     2.68989E-03
            6380               1     98.6232E-03     92.8835E-03     445.820E-06     962.034E-06
            6381               1     45.4974E-03     59.4667E-03     19.4501E-03     14.9430E-03
            6382               1     47.0804E-03     56.0615E-03     19.6430E-03     17.1358E-03
            6383               1     50.3357E-03     58.8906E-03     15.4667E-03     14.9906E-03
            6384               1     56.4664E-03     63.4779E-03     13.9948E-03     12.8840E-03
            6385               1     61.7850E-03     68.4987E-03     9.28633E-03     9.33194E-03
            6386               1     68.7597E-03     74.8323E-03     5.79425E-03     5.35845E-03
            6387               1     73.7187E-03     81.1604E-03    -2.62757E-03    -1.48516E-03
            6388               1     83.7584E-03     95.9420E-03    -11.9060E-03    -7.35209E-03
            6389               1     15.8559E-03     13.6863E-03     7.53162E-03     3.67163E-03
            6390               1     22.5083E-03     11.5942E-03     8.30287E-03     6.26002E-03
            6391               1     27.7989E-03     19.6867E-03     8.53010E-03     8.59664E-03
            6392               1     35.5425E-03     26.3792E-03     9.72733E-03     9.34262E-03
            6393               1     43.3074E-03     34.5130E-03     10.9750E-03     11.8723E-03
            6394               1     52.9862E-03     42.0448E-03     12.1251E-03     12.4679E-03
            6395               1     65.6280E-03     52.7909E-03     15.0148E-03     17.8909E-03
            6396               1     90.2209E-03     70.2728E-03     16.6650E-03     19.7781E-03
            6397               1     11.4158E-03     13.6466E-03     6.54938E-03     7.40288E-03
            6398               1     23.6552E-03     17.4366E-03     10.9014E-03     8.64168E-03
            6399               1     30.9856E-03     24.1242E-03     11.2414E-03     10.0389E-03
            6400               1     37.0079E-03     31.9421E-03     11.5625E-03     12.2730E-03
            6401               1     45.4980E-03     39.5627E-03     12.5213E-03     12.8394E-03
            6402               1     52.8466E-03     47.8864E-03     12.8168E-03     15.1161E-03
            6403               1     65.5056E-03     63.3128E-03     13.3008E-03     15.8917E-03
            6404               1     71.2746E-03     76.0782E-03     10.3661E-03     8.38134E-03
            6405               1     14.8791E-03     15.4661E-03     7.48066E-03     8.78892E-03
            6406               1     21.7179E-03     23.7975E-03     10.0792E-03     11.2354E-03
            6407               1     31.3207E-03     29.1107E-03     12.3958E-03     12.2599E-03
            6408               1     39.0952E-03     35.9295E-03     13.0628E-03     13.0711E-03
            6409               1     45.0519E-03     42.6232E-03     12.9815E-03     13.9901E-03
            6410               1     53.5703E-03     52.5822E-03     13.1519E-03     13.9978E-03
            6411               1     59.4218E-03     60.1236E-03     11.2247E-03     9.50762E-03
            6412               1     69.0307E-03     63.6722E-03     7.04136E-03     5.36362E-03
            6413               1     16.9711E-03     18.1218E-03     8.78534E-03     9.31218E-03
            6414               1     24.6489E-03     25.0722E-03     10.7249E-03     11.9249E-03
            6415               1     31.6354E-03     32.8224E-03     12.3078E-03     13.5592E-03
            6416               1     38.9029E-03     38.0227E-03     13.4380E-03     13.7896E-03
            6417               1     45.7982E-03     45.0923E-03     13.5966E-03     13.9068E-03
            6418               1     51.1359E-03     50.3879E-03     12.5542E-03     11.4284E-03
            6419               1     57.4982E-03     55.0632E-03     10.1717E-03     8.93803E-03
            6420               1     62.2137E-03     62.2541E-03     6.35502E-03     5.34223E-03
            6421               1     18.8079E-03     19.8049E-03     8.81108E-03     10.0211E-03
            6422               1     25.9517E-03     27.5995E-03     11.1105E-03     12.3941E-03
            6423               1     32.8763E-03     33.4614E-03     12.5220E-03     13.6236E-03
            6424               1     39.3314E-03     39.8292E-03     13.4681E-03     14.2564E-03
            6425               1     44.9488E-03     44.1275E-03     13.5524E-03     12.9732E-03
            6426               1     49.8289E-03     48.4205E-03     12.3610E-03     11.4180E-03
            6427               1     53.8740E-03     53.0977E-03     9.80312E-03     8.41261E-03
            6428               1     58.9253E-03     56.4815E-03     5.60758E-03     4.33845E-03
            6429               1     20.9800E-03     21.3621E-03     9.48773E-03     9.99143E-03
            6430               1     27.1175E-03     28.4391E-03     10.9665E-03     12.3686E-03
            6431               1     33.8459E-03     34.8862E-03     12.5602E-03     13.8919E-03
            6432               1     39.6636E-03     39.3156E-03     13.5842E-03     13.7031E-03
            6433               1     44.1773E-03     43.5984E-03     13.3509E-03     13.1691E-03
            6434               1     48.2524E-03     46.7589E-03     12.3827E-03     11.0156E-03
            6435               1     50.8290E-03     49.3377E-03     9.55626E-03     8.18183E-03
            6436               1     53.7611E-03     52.7645E-03     5.29248E-03     4.69047E-03
            6437               1     21.2425E-03     23.4114E-03     8.85691E-03     10.2651E-03
            6438               1     29.0722E-03     29.5251E-03     11.2203E-03     12.4272E-03
            6439               1     34.4625E-03     35.0258E-03     12.6628E-03     13.4632E-03
            6440               1     39.5179E-03     39.4051E-03     13.3635E-03     13.7731E-03
            6441               1     43.7323E-03     42.5366E-03     13.5482E-03     12.7648E-03
            6442               1     45.8155E-03     44.8687E-03     12.0497E-03     11.0367E-03
            6443               1     48.2263E-03     46.4223E-03     9.57956E-03     8.39596E-03
            6444               1     48.9952E-03     48.5354E-03     5.53168E-03     4.31871E-03
            6445               1     24.5868E-03     23.9743E-03     9.41471E-03     10.1965E-03
            6446               1     29.3836E-03     30.9779E-03     11.2243E-03     12.2650E-03
            6447               1     35.4213E-03     35.3226E-03     12.7803E-03     13.4704E-03
            6448               1     39.2594E-03     39.0175E-03     13.7553E-03     13.3113E-03
            6449               1     41.5089E-03     41.6614E-03     12.9468E-03     12.5680E-03
            6450               1     44.4122E-03     43.1047E-03     12.0237E-03     10.9679E-03
            6451               1     44.0380E-03     44.1084E-03     9.38452E-03     8.39831E-03
            6452               1     45.3206E-03     43.2372E-03     5.13364E-03     4.67788E-03
            6453               1     22.9492E-03     28.1465E-03     8.46047E-03     10.4756E-03
            6454               1     32.7300E-03     31.6714E-03     11.8405E-03     12.7496E-03
            6455               1     36.1809E-03     35.9437E-03     14.2621E-03     13.1777E-03
            6456               1     37.0685E-03     38.1913E-03     13.7547E-03     12.6871E-03
            6457               1     38.6992E-03     41.0175E-03     12.2738E-03     12.2134E-03
            6458               1     40.3934E-03     42.1157E-03     10.6877E-03     10.8287E-03
            6459               1     42.4738E-03     40.5052E-03     9.18153E-03     8.42849E-03
            6460               1     38.0527E-03     40.8540E-03     5.58199E-03     4.42690E-03
            6461               1     32.3976E-03     28.1904E-03     9.83889E-03     11.4469E-03
            6462               1     35.5964E-03     35.3918E-03     15.7513E-03     12.8000E-03
            6463               1     33.9307E-03     35.9969E-03     15.0394E-03     12.8969E-03
            6464               1     34.0837E-03     38.2808E-03     13.0384E-03     12.6766E-03
            6465               1     35.1389E-03     39.1981E-03     12.0639E-03     11.3025E-03
            6466               1     34.7742E-03     40.8014E-03     9.09524E-03     10.1614E-03
            6467               1     35.4621E-03     40.7225E-03     6.36023E-03     8.53303E-03
            6468               1     38.2467E-03     32.5107E-03     4.67934E-03     4.30333E-03
            6469               1     32.6160E-03     44.6129E-03     15.9290E-03     11.6850E-03
            6470               1     32.5165E-03     38.7555E-03     16.7089E-03     14.3158E-03
            6471               1     30.6528E-03     37.7126E-03     13.9483E-03     13.6224E-03
            6472               1     31.7880E-03     37.6878E-03     13.6102E-03     12.7377E-03
            6473               1     30.6237E-03     37.9421E-03     10.9143E-03     11.2566E-03
            6474               1     30.2045E-03     37.6654E-03     9.12680E-03     8.99522E-03
            6475               1     26.3375E-03     37.8692E-03     4.68597E-03     6.48447E-03
            6476               1     20.1089E-03     38.0474E-03    -749.845E-06     3.25021E-03
            6477               1     19.5520E-03     21.7143E-03     10.7901E-03     7.41727E-03
            6478               1     24.4218E-03     21.1916E-03     12.3204E-03     11.5838E-03
            6479               1     25.1842E-03     22.9869E-03     12.2370E-03     13.0647E-03
            6480               1     28.1319E-03     23.0325E-03     13.6089E-03     13.1796E-03
            6481               1     28.1832E-03     24.2116E-03     13.4701E-03     13.8953E-03
            6482               1     29.3580E-03     22.6689E-03     13.9019E-03     13.0746E-03
            6483               1     29.8456E-03     25.0175E-03     13.4093E-03     14.4118E-03
            6484               1     35.1259E-03     24.3397E-03     10.2394E-03     13.2980E-03
            6485               1     12.2431E-03     18.8953E-03     6.61847E-03     10.6605E-03
            6486               1     23.4308E-03     23.2593E-03     12.8734E-03     13.3054E-03
            6487               1     26.5093E-03     23.6540E-03     14.2876E-03     13.5971E-03
            6488               1     25.1442E-03     24.2857E-03     13.6382E-03     13.9085E-03
            6489               1     26.3891E-03     24.2517E-03     14.0166E-03     13.7230E-03
            6490               1     26.4472E-03     25.5541E-03     13.8392E-03     14.5822E-03
            6491               1     28.3234E-03     24.9056E-03     14.1572E-03     13.6903E-03
            6492               1     21.7181E-03     21.6981E-03     11.3006E-03     7.39755E-03
            6493               1     16.1672E-03     19.4288E-03     7.15341E-03     11.1669E-03
            6494               1     23.5716E-03     25.8916E-03     13.5686E-03     13.9888E-03
            6495               1     25.3383E-03     25.4061E-03     14.6110E-03     13.9410E-03
            6496               1     24.3120E-03     26.1286E-03     13.8580E-03     14.1284E-03
            6497               1     24.6266E-03     25.5580E-03     14.0054E-03     13.7022E-03
            6498               1     24.2974E-03     27.8402E-03     13.6726E-03     14.3076E-03
            6499               1     23.6289E-03     24.7147E-03     13.1137E-03     12.3777E-03
            6500               1     21.3126E-03     12.0866E-03     10.3998E-03     6.71285E-03
            6501               1     21.8238E-03     28.3101E-03     12.5188E-03     9.08726E-03
            6502               1     24.5216E-03     26.8075E-03     13.9472E-03     13.2149E-03
            6503               1     23.4219E-03     28.1774E-03     13.3555E-03     14.1921E-03
            6504               1     25.0002E-03     28.1930E-03     14.2956E-03     13.8780E-03
            6505               1     23.7679E-03     29.2625E-03     13.6730E-03     14.0792E-03
            6506               1     23.1022E-03     26.8742E-03     13.3222E-03     12.3836E-03
            6507               1     20.2711E-03     26.7503E-03     11.5372E-03     12.2927E-03
            6508               1     15.8162E-03     21.3061E-03     6.96801E-03     10.1489E-03