   Element Label             Int         S.Mises         S.Mises           S.S12           S.S12
                              Pt          @Loc 1          @Loc 2          @Loc 1          @Loc 2
-------------------------------------------------------------------------------------------------
               1               1     1.17386E-03     1.17080E-03    -677.523E-06    -675.461E-06
               2               1     1.21351E-03     1.17511E-03    -700.218E-06    -678.258E-06
               3               1     1.17670E-03     1.15851E-03    -678.945E-06    -667.276E-06
               4               1     1.07700E-03     1.07154E-03    -619.607E-06    -618.628E-06
               5               1     1.11986E-03     1.07802E-03    -643.207E-06    -620.766E-06
               6               1     1.07697E-03     1.07328E-03    -618.655E-06    -608.743E-06
               7               1     887.069E-06     879.090E-06    -509.092E-06    -504.089E-06
               8               1     927.186E-06     886.941E-06    -524.627E-06    -506.457E-06
               9               1     894.951E-06     926.940E-06    -509.298E-06    -500.279E-06
              10               1     639.135E-06     626.996E-06    -356.051E-06    -361.330E-06
              11               1     677.449E-06     628.815E-06    -364.741E-06    -351.946E-06
              12               1     660.599E-06     732.292E-06    -364.769E-06    -350.594E-06
              13               1     319.111E-06     319.387E-06    -143.494E-06    -139.079E-06
              14               1     488.253E-06     404.972E-06    -228.966E-06    -207.243E-06
              15               1     303.617E-06     534.787E-06    -125.538E-06    -122.648E-06
              16               1     318.676E-06     465.603E-06     150.487E-06     175.550E-06
              17               1     610.961E-06     532.767E-06     316.148E-06     284.996E-06
              18               1     715.053E-06     938.342E-06     218.975E-06     215.288E-06
              19               1     18.8328E-03     18.7071E-03     10.8611E-03     10.7271E-03
              20               1     19.0669E-03     18.8025E-03     10.9909E-03     10.8537E-03
              21               1     18.8608E-03     18.8500E-03     10.8877E-03     10.8828E-03
              22               1     18.9791E-03     18.8471E-03     10.9184E-03     10.8535E-03
              23               1     18.9914E-03     18.8371E-03     10.8962E-03     10.8039E-03
              24               1     18.8969E-03     19.2777E-03     10.7504E-03     10.8987E-03
              25               1     19.8096E-03     19.1893E-03     11.0114E-03     10.8859E-03
              26               1     19.0361E-03     19.0820E-03     10.7343E-03     10.4478E-03
              27               1     16.6837E-03     16.5917E-03     9.55852E-03     9.54460E-03
              28               1     16.7334E-03     16.4199E-03     9.53563E-03     9.34323E-03
              29               1     17.0741E-03     16.6341E-03     9.64929E-03     9.36786E-03
              30               1     17.1958E-03     16.8395E-03     9.55049E-03     9.38138E-03
              31               1     17.2296E-03     17.1741E-03     9.47358E-03     9.37300E-03
              32               1     17.6531E-03     17.6289E-03     9.42390E-03     9.49194E-03
              33               1     17.7952E-03     17.8785E-03     9.34479E-03     9.42678E-03
              34               1     17.8474E-03     19.2931E-03     9.14492E-03     9.59557E-03
              35               1     20.2745E-03     18.6633E-03     9.62575E-03     9.59444E-03
              36               1     18.2063E-03     19.1753E-03     9.21854E-03     8.77961E-03
              37               1     15.4842E-03     15.7990E-03     8.17375E-03     8.34732E-03
              38               1     16.0349E-03     15.1881E-03     7.95860E-03     7.69965E-03
              39               1     16.5759E-03     16.1206E-03     8.32739E-03     7.75711E-03
              40               1     16.8945E-03     16.4468E-03     8.11990E-03     7.82712E-03
              41               1     17.4615E-03     16.9300E-03     8.07869E-03     7.80222E-03
              42               1     17.5512E-03     17.9938E-03     7.93513E-03     7.96527E-03
              43               1     18.6531E-03     18.7444E-03     7.86949E-03     8.14500E-03
              44               1     19.0400E-03     19.2507E-03     7.82101E-03     8.06928E-03
              45               1     19.1423E-03     21.8364E-03     7.52667E-03     8.26634E-03
              46               1     23.4398E-03     20.1406E-03     8.23482E-03     8.28554E-03
              47               1     19.3681E-03     21.9124E-03     7.68095E-03     7.12756E-03
              48               1     16.4165E-03     17.5657E-03     6.79922E-03     7.14149E-03
              49               1     18.6574E-03     16.6031E-03     6.39917E-03     6.13624E-03
              50               1     18.4742E-03     18.8433E-03     6.99767E-03     6.20705E-03
              51               1     19.2540E-03     18.7944E-03     6.68622E-03     6.33200E-03
              52               1     20.2273E-03     19.5763E-03     6.63777E-03     6.28930E-03
              53               1     20.2634E-03     21.0849E-03     6.46399E-03     6.50550E-03
              54               1     22.0223E-03     21.9014E-03     6.35823E-03     6.73957E-03
              55               1     22.5079E-03     22.6230E-03     6.29894E-03     6.64740E-03
              56               1     22.5832E-03     26.3078E-03     5.93931E-03     6.87057E-03
              57               1     28.6179E-03     23.3721E-03     6.77818E-03     6.91286E-03
              58               1     22.3867E-03     26.6768E-03     6.13617E-03     5.52680E-03
              59               1     19.7540E-03     21.9783E-03     5.52186E-03     6.06770E-03
              60               1     24.5687E-03     20.6414E-03     4.97641E-03     4.95210E-03
              61               1     22.5653E-03     24.7620E-03     5.55698E-03     5.00407E-03
              62               1     24.8821E-03     23.8032E-03     5.12229E-03     5.26570E-03
              63               1     25.6067E-03     24.6095E-03     4.95525E-03     4.83842E-03
              64               1     25.0608E-03     29.2246E-03     4.48600E-03     5.13457E-03
              65               1     32.4423E-03     25.2526E-03     5.17055E-03     5.19889E-03
              66               1     24.5932E-03     30.1246E-03     4.50549E-03     3.86678E-03
              67               1     19.8083E-03     19.6211E-03     11.4309E-03     11.3140E-03
              68               1     20.3314E-03     19.9131E-03     11.7252E-03     11.4909E-03
              69               1     19.8766E-03     20.0248E-03     11.4747E-03     11.5564E-03
              70               1     19.9793E-03     19.9290E-03     11.5329E-03     11.5043E-03
              71               1     20.0155E-03     19.8927E-03     11.5553E-03     11.4849E-03
              72               1     19.8772E-03     20.2585E-03     11.4758E-03     11.6946E-03
              73               1     20.5877E-03     20.1730E-03     11.8743E-03     11.6422E-03
              74               1     19.8353E-03     19.2902E-03     11.4470E-03     11.1196E-03
              75               1     17.3573E-03     17.6165E-03     10.0065E-03     10.1420E-03
              76               1     17.5649E-03     17.2422E-03     10.1082E-03     9.94139E-03
              77               1     17.4689E-03     17.4048E-03     10.0712E-03     10.0257E-03
              78               1     17.4657E-03     17.5328E-03     10.0653E-03     10.1041E-03
              79               1     17.4185E-03     17.6953E-03     10.0407E-03     10.2035E-03
              80               1     17.7391E-03     17.8514E-03     10.2270E-03     10.2924E-03
              81               1     17.9502E-03     17.5711E-03     10.3496E-03     10.1351E-03
              82               1     17.6505E-03     18.1625E-03     10.1838E-03     10.4663E-03
              83               1     18.6970E-03     18.1172E-03     10.7343E-03     10.4267E-03
              84               1     17.6059E-03     16.6551E-03     10.1345E-03     9.52655E-03
              85               1     14.8676E-03     15.6007E-03     8.58095E-03     8.99549E-03
              86               1     14.6470E-03     14.6193E-03     8.44641E-03     8.43886E-03
              87               1     15.0212E-03     14.7176E-03     8.66065E-03     8.48488E-03
              88               1     14.7869E-03     15.2113E-03     8.50704E-03     8.75602E-03
              89               1     15.0708E-03     15.3426E-03     8.64320E-03     8.80004E-03
              90               1     15.2956E-03     15.4823E-03     8.75476E-03     8.86711E-03
              91               1     15.7074E-03     15.7109E-03     8.98046E-03     8.96010E-03
              92               1     16.0275E-03     15.3975E-03     9.12664E-03     8.76959E-03
              93               1     15.5997E-03     16.3381E-03     8.89712E-03     9.22919E-03
              94               1     17.1908E-03     16.3401E-03     9.54917E-03     9.20460E-03
              95               1     15.6914E-03     14.7085E-03     8.84755E-03     8.00220E-03
              96               1     12.5959E-03     13.7525E-03     7.21659E-03     7.89338E-03
              97               1     12.1303E-03     12.3086E-03     6.90715E-03     6.99462E-03
              98               1     12.7975E-03     12.4137E-03     7.28955E-03     7.03061E-03
              99               1     12.6409E-03     13.2341E-03     7.08162E-03     7.44611E-03
             100               1     13.0706E-03     13.4698E-03     7.25279E-03     7.43511E-03
             101               1     13.5835E-03     13.8257E-03     7.43647E-03     7.53707E-03
             102               1     14.2072E-03     14.2747E-03     7.69733E-03     7.64701E-03
             103               1     14.8394E-03     14.1071E-03     7.88515E-03     7.46499E-03
             104               1     14.3360E-03     15.6621E-03     7.60145E-03     8.00879E-03
             105               1     17.1135E-03     15.5218E-03     8.34512E-03     7.99126E-03
             106               1     14.7569E-03     14.6688E-03     7.58238E-03     6.58977E-03
             107               1     11.7651E-03     13.1335E-03     6.12674E-03     6.91914E-03
             108               1     12.0332E-03     11.4142E-03     5.76271E-03     5.68102E-03
             109               1     12.3214E-03     11.9942E-03     6.20799E-03     5.78001E-03
             110               1     12.9715E-03     12.8661E-03     6.15441E-03     6.31910E-03
             111               1     13.7147E-03     13.1657E-03     6.32442E-03     6.19110E-03
             112               1     13.6859E-03     15.6447E-03     6.19452E-03     6.82320E-03
             113               1     17.8324E-03     15.2881E-03     6.92351E-03     6.85041E-03
             114               1     14.5919E-03     16.1517E-03     6.26906E-03     5.36070E-03
             115               1     19.6179E-03     19.2991E-03     11.3250E-03     11.1398E-03
             116               1     19.5899E-03     19.5412E-03     11.3094E-03     11.2742E-03
             117               1     19.5483E-03     19.7503E-03     11.2588E-03     11.3803E-03
             118               1     19.7221E-03     19.9791E-03     11.3453E-03     11.4927E-03
             119               1     19.9194E-03     19.9227E-03     11.4228E-03     11.4445E-03
             120               1     19.8425E-03     19.9644E-03     11.3717E-03     11.4032E-03
             121               1     20.8003E-03     19.9342E-03     11.7460E-03     11.3937E-03
             122               1     20.1070E-03     19.4553E-03     11.4860E-03     10.9623E-03
             123               1     17.6164E-03     18.1865E-03     9.91836E-03     10.1932E-03
             124               1     17.3784E-03     17.9760E-03     9.56344E-03     10.0515E-03
             125               1     17.8953E-03     18.5096E-03     9.88374E-03     10.2207E-03
             126               1     18.0431E-03     18.6971E-03     9.94288E-03     10.3632E-03
             127               1     18.5542E-03     18.5879E-03     10.1791E-03     10.2819E-03
             128               1     18.8293E-03     18.5906E-03     10.3291E-03     10.2240E-03
             129               1     19.1517E-03     18.4451E-03     10.4228E-03     10.0912E-03
             130               1     18.9840E-03     18.9003E-03     10.3369E-03     10.0997E-03
             131               1     20.9888E-03     18.9144E-03     11.0211E-03     10.2473E-03
             132               1     19.0277E-03     18.2724E-03     10.3958E-03     9.49306E-03
             133               1     16.5602E-03     18.5164E-03     8.64286E-03     9.43329E-03
             134               1     16.9589E-03     17.2274E-03     8.00458E-03     8.91160E-03
             135               1     16.9759E-03     18.3402E-03     8.54421E-03     9.21406E-03
             136               1     17.2237E-03     18.1503E-03     8.68788E-03     9.43637E-03
             137               1     17.4853E-03     17.6275E-03     8.89832E-03     9.18652E-03
             138               1     17.7683E-03     17.5724E-03     9.14380E-03     9.10826E-03
             139               1     18.0381E-03     17.3544E-03     9.28252E-03     8.99296E-03
             140               1     18.5217E-03     17.0897E-03     9.47896E-03     8.72951E-03
             141               1     18.1704E-03     17.9281E-03     9.33721E-03     8.87299E-03
             142               1     20.8214E-03     17.8406E-03     10.2955E-03     9.12367E-03
             143               1     17.8844E-03     16.9616E-03     9.35248E-03     8.09669E-03
             144               1     15.4669E-03     18.5009E-03     7.48662E-03     8.66068E-03
             145               1     16.3482E-03     16.2536E-03     6.54388E-03     7.82941E-03
             146               1     15.9163E-03     17.5917E-03     7.39294E-03     8.21881E-03
             147               1     15.9219E-03     17.0249E-03     7.49033E-03     8.48145E-03
             148               1     16.0576E-03     16.1753E-03     7.77868E-03     8.15729E-03
             149               1     16.2184E-03     15.9229E-03     8.06474E-03     8.03429E-03
             150               1     16.4359E-03     15.5439E-03     8.28167E-03     7.90536E-03
             151               1     16.9315E-03     15.0856E-03     8.54077E-03     7.55088E-03
             152               1     16.5330E-03     15.9042E-03     8.41641E-03     7.77987E-03
             153               1     19.1236E-03     15.9353E-03     9.56052E-03     8.11740E-03
             154               1     15.9825E-03     14.4558E-03     8.38846E-03     6.86726E-03
             155               1     13.1944E-03     16.2031E-03     6.50045E-03     7.71693E-03
             156               1     13.6178E-03     13.6625E-03     5.46136E-03     6.65820E-03
             157               1     13.9716E-03     14.7361E-03     6.65911E-03     7.02243E-03
             158               1     13.9525E-03     14.4487E-03     6.82373E-03     7.36854E-03
             159               1     14.6909E-03     13.4709E-03     7.42216E-03     6.94547E-03
             160               1     14.3436E-03     13.9375E-03     7.51023E-03     7.25937E-03
             161               1     16.4035E-03     14.0445E-03     8.84061E-03     7.59155E-03
             162               1     13.8658E-03     11.5666E-03     7.67973E-03     6.21806E-03
             163               1     17.2022E-03     17.6084E-03     9.92188E-03     10.1146E-03
             164               1     17.9201E-03     18.0675E-03     10.3400E-03     10.4217E-03
             165               1     17.7635E-03     18.3194E-03     10.2386E-03     10.5599E-03
             166               1     18.4014E-03     17.9423E-03     10.4850E-03     10.2804E-03
             167               1     18.4769E-03     17.9723E-03     10.4563E-03     10.1057E-03
             168               1     18.3207E-03     19.1649E-03     10.1334E-03     10.4152E-03
             169               1     20.1890E-03     18.3735E-03     10.4982E-03     10.0953E-03
             170               1     18.5279E-03     19.2556E-03     9.95616E-03     9.48988E-03
             171               1     17.1457E-03     19.2428E-03     9.22088E-03     10.1464E-03
             172               1     18.4519E-03     18.7895E-03     9.33960E-03     10.0793E-03
             173               1     18.2009E-03     19.2724E-03     9.63729E-03     10.0420E-03
             174               1     18.7477E-03     18.5052E-03     9.68334E-03     9.67171E-03
             175               1     18.7213E-03     18.8651E-03     9.49052E-03     9.35146E-03
             176               1     19.6806E-03     19.2741E-03     9.52390E-03     9.31624E-03
             177               1     19.9423E-03     19.3366E-03     9.35287E-03     8.85193E-03
             178               1     19.9941E-03     22.0597E-03     8.97336E-03     9.21848E-03
             179               1     24.6210E-03     19.8868E-03     9.62252E-03     8.78948E-03
             180               1     20.7297E-03     23.2416E-03     9.01091E-03     7.86449E-03
             181               1     19.8645E-03     24.9313E-03     8.68732E-03     10.2811E-03
             182               1     23.3595E-03     21.7841E-03     8.54381E-03     9.93354E-03
             183               1     20.8706E-03     22.8591E-03     9.30854E-03     9.59253E-03
             184               1     20.8558E-03     21.3185E-03     8.96134E-03     9.36736E-03
             185               1     21.3119E-03     20.9519E-03     9.00854E-03     8.77771E-03
             186               1     20.6471E-03     21.6718E-03     8.63218E-03     8.53796E-03
             187               1     22.1153E-03     21.6277E-03     8.58853E-03     8.34615E-03
             188               1     22.1914E-03     21.7988E-03     8.39084E-03     7.77507E-03
             189               1     22.1622E-03     25.1798E-03     7.87126E-03     8.05417E-03
             190               1     28.8839E-03     21.9751E-03     8.86108E-03     7.53640E-03
             191               1     23.0312E-03     27.2109E-03     8.11492E-03     6.35241E-03
             192               1     22.4785E-03     30.0110E-03     8.14927E-03     10.3110E-03
             193               1     27.7455E-03     24.1896E-03     7.83025E-03     9.63898E-03
             194               1     22.9864E-03     25.9145E-03     8.86811E-03     9.13497E-03
             195               1     22.5941E-03     23.2591E-03     8.38467E-03     8.97415E-03
             196               1     22.7606E-03     22.4446E-03     8.36938E-03     8.18931E-03
             197               1     21.5158E-03     23.0022E-03     7.97755E-03     7.90042E-03
             198               1     22.8536E-03     22.4534E-03     7.82281E-03     7.61871E-03
             199               1     22.7418E-03     22.3409E-03     7.63805E-03     6.88322E-03
             200               1     22.4890E-03     25.8486E-03     7.00285E-03     7.10212E-03
             201               1     30.0735E-03     22.2580E-03     8.24693E-03     6.50647E-03
             202               1     23.4240E-03     28.2880E-03     7.40055E-03     5.16928E-03
             203               1     21.9115E-03     30.2568E-03     7.27545E-03     9.80738E-03
             204               1     27.7159E-03     23.0275E-03     6.99355E-03     8.79947E-03
             205               1     21.9757E-03     25.3006E-03     7.92350E-03     8.22450E-03
             206               1     22.3861E-03     22.0356E-03     7.71130E-03     8.17599E-03
             207               1     22.0035E-03     20.6498E-03     7.53376E-03     6.85150E-03
             208               1     20.8247E-03     23.6410E-03     7.10789E-03     7.03955E-03
             209               1     27.4586E-03     19.8370E-03     8.27208E-03     6.34263E-03
             210               1     21.4882E-03     24.9412E-03     7.50867E-03     4.97854E-03
             211               1     15.8485E-03     15.7996E-03     9.10547E-03     8.89893E-03
             212               1     15.7574E-03     15.6814E-03     8.90648E-03     9.02725E-03
             213               1     14.6448E-03     14.1925E-03     8.39972E-03     8.18473E-03
             214               1     14.4478E-03     14.2773E-03     8.12616E-03     7.96265E-03
             215               1     15.0764E-03     14.7369E-03     8.05938E-03     7.87655E-03
             216               1     15.5120E-03     16.8785E-03     7.84286E-03     7.70804E-03
             217               1     19.9851E-03     17.3587E-03     8.01925E-03     8.24281E-03
             218               1     16.6583E-03     19.6387E-03     7.72626E-03     7.60303E-03
             219               1     19.6939E-03     20.0675E-03     10.5185E-03     10.2076E-03
             220               1     19.4287E-03     18.8153E-03     9.87510E-03     9.74297E-03
             221               1     17.6730E-03     18.2816E-03     8.91959E-03     8.69023E-03
             222               1     18.2248E-03     17.9997E-03     8.32353E-03     8.07330E-03
             223               1     18.3514E-03     19.1789E-03     7.94125E-03     7.71842E-03
             224               1     19.4862E-03     20.2570E-03     7.29866E-03     7.39092E-03
             225               1     21.1954E-03     21.0436E-03     7.28918E-03     7.20728E-03
             226               1     20.6092E-03     25.3041E-03     6.64832E-03     6.75059E-03
             227               1     29.0537E-03     23.2674E-03     6.46482E-03     6.84215E-03
             228               1     21.6294E-03     28.3287E-03     5.69186E-03     5.69522E-03
             229               1     26.7448E-03     30.1345E-03     12.0444E-03     11.6374E-03
             230               1     28.7781E-03     25.5024E-03     10.9084E-03     10.4855E-03
             231               1     23.5635E-03     26.5619E-03     9.58632E-03     9.36683E-03
             232               1     24.4655E-03     24.5458E-03     8.74724E-03     8.22540E-03
             233               1     24.6174E-03     25.7103E-03     8.00363E-03     7.92775E-03
             234               1     24.4218E-03     26.4427E-03     7.47107E-03     7.28161E-03
             235               1     26.0029E-03     27.5291E-03     6.69810E-03     6.96116E-03
             236               1     27.3776E-03     27.6341E-03     6.46572E-03     6.58032E-03
             237               1     25.8406E-03     32.7697E-03     5.54294E-03     5.81594E-03
             238               1     36.7324E-03     28.9916E-03     4.94963E-03     5.50889E-03
             239               1     26.8595E-03     36.1299E-03     3.76773E-03     3.86118E-03
             240               1     32.8002E-03     38.9176E-03     13.1453E-03     12.6750E-03
             241               1     37.0182E-03     31.4559E-03     11.6123E-03     11.0229E-03
             242               1     28.5300E-03     33.5478E-03     10.0707E-03     9.78453E-03
             243               1     29.5892E-03     29.8280E-03     8.92409E-03     8.36277E-03
             244               1     29.2815E-03     30.8355E-03     8.08944E-03     7.95496E-03
             245               1     28.2602E-03     31.0754E-03     7.30189E-03     7.18103E-03
             246               1     29.6517E-03     31.6534E-03     6.38232E-03     6.69263E-03
             247               1     30.5599E-03     31.1536E-03     5.92097E-03     6.19097E-03
             248               1     28.2760E-03     36.3235E-03     4.75136E-03     5.15419E-03
             249               1     40.1480E-03     31.7315E-03     3.84817E-03     4.51935E-03
             250               1     29.4076E-03     39.9425E-03     2.35286E-03     2.49419E-03
             251               1     34.3935E-03     41.8831E-03     12.9132E-03     12.5194E-03
             252               1     39.7718E-03     33.1840E-03     11.0144E-03     10.6825E-03
             253               1     29.4319E-03     35.7814E-03     9.57256E-03     9.26970E-03
             254               1     30.9664E-03     31.4325E-03     7.73827E-03     7.76630E-03
             255               1     30.8298E-03     31.1528E-03     7.12682E-03     7.04842E-03
             256               1     26.8555E-03     34.8664E-03     5.29111E-03     5.69824E-03
             257               1     37.9430E-03     30.1214E-03     4.29580E-03     4.70498E-03
             258               1     27.7044E-03     37.7847E-03     2.48066E-03     2.56489E-03
             259               1     12.5344E-03     13.9485E-03     6.12958E-03     6.12571E-03
             260               1     10.8852E-03     9.92490E-03     5.64476E-03     5.36970E-03
             261               1     9.26316E-03     8.61685E-03     5.30911E-03     4.94407E-03
             262               1     8.95283E-03     9.37857E-03     4.77645E-03     4.80566E-03
             263               1     10.8081E-03     10.3095E-03     4.42494E-03     4.70951E-03
             264               1     12.5510E-03     14.2033E-03     4.80880E-03     4.32818E-03
             265               1     17.9639E-03     14.6257E-03     3.75956E-03     4.00959E-03
             266               1     17.7624E-03     22.0054E-03     3.42998E-03     4.12421E-03
             267               1     17.4896E-03     16.1721E-03     9.74632E-03     8.93908E-03
             268               1     16.9166E-03     15.4104E-03     8.60883E-03     7.69300E-03
             269               1     15.9056E-03     15.3497E-03     6.70876E-03     6.42309E-03
             270               1     16.9562E-03     16.7353E-03     6.06269E-03     5.88649E-03
             271               1     18.4325E-03     18.1558E-03     5.38748E-03     5.46304E-03
             272               1     20.0019E-03     20.4380E-03     4.93348E-03     4.90302E-03
             273               1     22.5238E-03     21.4887E-03     4.14100E-03     4.76558E-03
             274               1     23.1374E-03     26.2981E-03     4.41865E-03     3.87259E-03
             275               1     30.0086E-03     24.5188E-03     1.98251E-03     2.79933E-03
             276               1     27.2678E-03     32.9009E-03     670.391E-06     2.08950E-03
             277               1     28.1707E-03     27.5222E-03     13.2816E-03     11.6879E-03
             278               1     29.2210E-03     25.2556E-03     11.5020E-03     10.0251E-03
             279               1     25.5323E-03     26.3125E-03     8.09802E-03     7.91609E-03
             280               1     27.2850E-03     26.1723E-03     7.46369E-03     6.99234E-03
             281               1     27.6737E-03     27.5739E-03     6.27342E-03     6.28000E-03
             282               1     29.0545E-03     28.8267E-03     5.59422E-03     5.75023E-03
             283               1     30.0938E-03     30.5235E-03     4.95147E-03     4.95098E-03
             284               1     32.4018E-03     30.9694E-03     3.77426E-03     4.65286E-03
             285               1     31.7924E-03     35.8018E-03     3.89479E-03     3.39042E-03
             286               1     39.4520E-03     32.3913E-03     249.761E-06     1.60461E-03
             287               1     34.9740E-03     41.3471E-03    -1.85296E-03     201.486E-06
             288               1     37.7265E-03     38.2488E-03     16.0454E-03     13.8617E-03
             289               1     39.7821E-03     33.7388E-03     13.7468E-03     11.8339E-03
             290               1     33.4953E-03     35.4126E-03     9.18666E-03     9.12171E-03
             291               1     35.4498E-03     33.7487E-03     8.53752E-03     7.83658E-03
             292               1     34.9072E-03     34.9029E-03     6.95829E-03     6.97997E-03
             293               1     35.7814E-03     35.4519E-03     6.06549E-03     6.21527E-03
             294               1     36.1849E-03     36.6039E-03     5.20697E-03     5.24430E-03
             295               1     37.9837E-03     36.3775E-03     3.70799E-03     4.74083E-03
             296               1     36.5579E-03     40.8560E-03     3.60375E-03     3.22860E-03
             297               1     44.1343E-03     36.3972E-03    -839.295E-06     936.667E-06
             298               1     38.7134E-03     45.2354E-03    -3.49381E-03    -1.01846E-03
             299               1     42.3496E-03     43.8239E-03     16.7733E-03     14.3801E-03
             300               1     44.7511E-03     37.7817E-03     13.9901E-03     11.9696E-03
             301               1     37.2565E-03     39.9783E-03     8.86577E-03     9.08066E-03
             302               1     39.0129E-03     37.6666E-03     8.04881E-03     7.24539E-03
             303               1     38.5171E-03     37.5185E-03     5.45020E-03     6.42619E-03
             304               1     36.7978E-03     40.5784E-03     4.84221E-03     4.51877E-03
             305               1     42.4930E-03     35.4363E-03     52.3870E-06     2.01631E-03
             306               1     36.8368E-03     42.9663E-03    -3.05749E-03    -469.500E-06
             307               1     59.3490E-03     62.2330E-03    -32.5888E-03    -31.5462E-03
             308               1     67.0636E-03     62.5012E-03    -36.5712E-03    -35.5828E-03
             309               1     67.1784E-03     69.3028E-03    -37.5067E-03    -36.0175E-03
             310               1     70.6079E-03     65.6388E-03    -38.3737E-03    -37.1347E-03
             311               1     65.4287E-03     65.7993E-03    -37.4839E-03    -37.5158E-03
             312               1     66.1758E-03     64.1779E-03    -38.1565E-03    -37.0099E-03
             313               1     65.3048E-03     64.4977E-03    -37.6648E-03    -36.5673E-03
             314               1     69.6975E-03     68.7103E-03    -40.0584E-03    -38.9172E-03
             315               1     76.5075E-03     74.3083E-03    -43.8649E-03    -42.8781E-03
             316               1     77.0652E-03     76.4393E-03    -44.1317E-03    -42.9962E-03
             317               1     80.2664E-03     76.6767E-03    -45.6423E-03    -44.0362E-03
             318               1     77.6766E-03     77.8630E-03    -44.7500E-03    -44.7998E-03
             319               1     78.9257E-03     76.0357E-03    -45.5658E-03    -43.8728E-03
             320               1     76.6455E-03     75.4447E-03    -44.2485E-03    -43.4036E-03
             321               1     75.8688E-03     73.6548E-03    -43.7498E-03    -42.4911E-03
             322               1     81.9562E-03     80.1344E-03    -47.2599E-03    -46.1535E-03
             323               1     82.3186E-03     79.0498E-03    -47.4918E-03    -45.5757E-03
             324               1     83.9633E-03     81.5239E-03    -48.4581E-03    -47.0573E-03
             325               1     79.9914E-03     81.1355E-03    -46.1675E-03    -46.8163E-03
             326               1     83.3148E-03     81.0590E-03    -48.0580E-03    -46.7785E-03
             327               1     82.2934E-03     79.6418E-03    -47.4906E-03    -45.9437E-03
             328               1     73.7537E-03     73.0160E-03    -41.7114E-03    -40.6499E-03
             329               1     78.6918E-03     76.4539E-03    -44.7186E-03    -43.7579E-03
             330               1     76.6062E-03     73.5918E-03    -44.0672E-03    -41.7006E-03
             331               1     78.8073E-03     75.5151E-03    -45.2784E-03    -43.5952E-03
             332               1     77.7525E-03     80.7774E-03    -44.8892E-03    -46.6358E-03
             333               1     77.9681E-03     75.6689E-03    -44.8611E-03    -43.6799E-03
             334               1     76.1809E-03     74.4976E-03    -43.8525E-03    -42.4151E-03
             335               1     70.9751E-03     72.2006E-03    -39.7483E-03    -38.5352E-03
             336               1     78.1958E-03     73.3764E-03    -42.1382E-03    -40.8888E-03
             337               1     61.6947E-03     65.6347E-03    -34.5148E-03    -33.5473E-03
             338               1     69.8560E-03     63.5896E-03    -37.4945E-03    -35.7930E-03
             339               1     58.3126E-03     57.9786E-03    -33.6444E-03    -33.4124E-03
             340               1     68.6414E-03     63.6438E-03    -38.1230E-03    -36.3853E-03
             341               1     62.8317E-03     64.8354E-03    -35.8167E-03    -34.9719E-03
             342               1     52.3049E-03     62.8958E-03    -19.9012E-03    -19.1868E-03
             343               1     39.3797E-03     35.1219E-03    -20.2860E-03    -20.0561E-03
             344               1     52.9456E-03     67.7673E-03    -14.6525E-03    -15.7099E-03
             345               1     42.8675E-03     35.3212E-03    -13.4438E-03    -13.9541E-03
             346               1     30.3976E-03     23.0676E-03    -17.3579E-03    -12.9610E-03
             347               1     36.2505E-03     31.3839E-03    -14.8847E-03    -14.9437E-03
             348               1     48.2377E-03     60.1267E-03    -17.3103E-03    -17.6328E-03
             349               1     57.6886E-03     58.4567E-03    -33.2389E-03    -32.5991E-03
             350               1     58.8017E-03     57.1190E-03    -33.8573E-03    -32.9205E-03
             351               1     58.8256E-03     57.0142E-03    -33.5693E-03    -32.7716E-03
             352               1     59.8483E-03     61.7559E-03    -32.9907E-03    -32.9875E-03
             353               1     69.1798E-03     60.8088E-03    -34.3392E-03    -32.8820E-03
             354               1     62.5364E-03     68.2513E-03    -32.7048E-03    -30.8487E-03
             355               1     49.1776E-03     49.2433E-03    -24.1465E-03    -24.1613E-03
             356               1     71.4816E-03     71.6222E-03    -41.0754E-03    -40.4524E-03
             357               1     74.2526E-03     71.0973E-03    -42.4671E-03    -40.9693E-03
             358               1     72.4175E-03     70.6786E-03    -41.8035E-03    -40.7681E-03
             359               1     71.6917E-03     72.0433E-03    -41.3437E-03    -41.4547E-03
             360               1     75.7292E-03     72.4860E-03    -42.8453E-03    -41.6150E-03
             361               1     71.6795E-03     70.7020E-03    -40.9497E-03    -39.2483E-03
             362               1     54.4826E-03     54.4825E-03    -31.2158E-03    -31.2307E-03
             363               1     79.0038E-03     77.4473E-03    -45.2443E-03    -44.0701E-03
             364               1     79.8868E-03     77.9655E-03    -45.5882E-03    -44.6463E-03
             365               1     78.7070E-03     78.8504E-03    -45.0337E-03    -45.0283E-03
             366               1     78.3432E-03     79.2502E-03    -44.9863E-03    -45.5070E-03
             367               1     82.7969E-03     78.9336E-03    -47.5080E-03    -45.3837E-03
             368               1     79.8055E-03     74.9600E-03    -45.9772E-03    -43.1898E-03
             369               1     63.7877E-03     63.9033E-03    -36.2236E-03    -36.2384E-03
             370               1     73.2311E-03     74.2364E-03    -41.9102E-03    -42.5158E-03
             371               1     78.9171E-03     78.0125E-03    -44.5956E-03    -44.3168E-03
             372               1     78.3296E-03     78.2481E-03    -44.4386E-03    -44.2085E-03
             373               1     78.6212E-03     79.9543E-03    -43.9837E-03    -44.4100E-03
             374               1     84.8093E-03     76.6003E-03    -46.0176E-03    -42.9390E-03
             375               1     77.5475E-03     76.1916E-03    -42.8014E-03    -39.5932E-03
             376               1     72.6776E-03     72.9841E-03    -38.8284E-03    -38.8433E-03
             377               1     70.8180E-03     67.4922E-03    -40.6789E-03    -38.8378E-03
             378               1     67.8838E-03     68.7185E-03    -39.0441E-03    -39.0773E-03
             379               1     67.3354E-03     62.9344E-03    -37.0064E-03    -35.2608E-03
             380               1     66.2728E-03     70.2916E-03    -35.2856E-03    -33.7225E-03
             381               1     83.4702E-03     72.4064E-03    -35.6758E-03    -35.8023E-03
             382               1     70.0314E-03     80.4980E-03    -33.8172E-03    -32.2728E-03
             383               1     78.4520E-03     78.9580E-03    -38.8529E-03    -38.8678E-03
             384               1     49.8710E-03     52.0384E-03    -27.3486E-03    -26.2514E-03
             385               1     41.4761E-03     38.3479E-03    -23.8810E-03    -21.3857E-03
             386               1     43.1641E-03     36.9993E-03    -19.9341E-03    -19.2877E-03
             387               1     48.5501E-03     56.0173E-03    -19.8907E-03    -17.4608E-03
             388               1     74.6930E-03     58.6463E-03    -14.7459E-03    -15.3106E-03
             389               1     76.0116E-03     95.4147E-03    -13.3199E-03    -16.0597E-03
             390               1     79.6790E-03     80.3589E-03    -36.2954E-03    -36.3102E-03
             391               1     1.24858E-03     1.22942E-03     720.807E-06     709.421E-06
             392               1     1.26830E-03     1.24319E-03     732.233E-06     717.531E-06
             393               1     1.25786E-03     1.25093E-03     725.441E-06     721.615E-06
             394               1     1.26168E-03     1.24251E-03     726.900E-06     715.819E-06
             395               1     1.24371E-03     1.25393E-03     716.218E-06     720.600E-06
             396               1     1.28653E-03     1.25004E-03     735.897E-06     718.112E-06
             397               1     1.23894E-03     1.20209E-03     711.803E-06     686.239E-06
             398               1     1.13468E-03     1.11702E-03     654.740E-06     643.428E-06
             399               1     1.15206E-03     1.13299E-03     664.916E-06     651.409E-06
             400               1     1.15911E-03     1.14714E-03     663.121E-06     658.353E-06
             401               1     1.16271E-03     1.13355E-03     657.480E-06     640.172E-06
             402               1     1.17967E-03     1.22014E-03     657.891E-06     667.965E-06
             403               1     1.26840E-03     1.19241E-03     675.828E-06     663.103E-06
             404               1     1.18636E-03     1.20872E-03     652.081E-06     627.435E-06
             405               1     915.632E-06     904.806E-06     527.995E-06     515.814E-06
             406               1     932.091E-06     921.940E-06     537.876E-06     525.500E-06
             407               1     936.796E-06     940.544E-06     519.243E-06     528.113E-06
             408               1     998.324E-06     1.00798E-03     534.145E-06     543.385E-06
             409               1     1.02414E-03     1.08245E-03     526.528E-06     531.082E-06
             410               1     1.28880E-03     1.07283E-03     569.354E-06     535.191E-06
             411               1     1.10270E-03     1.23295E-03     542.909E-06     507.299E-06
             412               1     575.773E-06     606.416E-06     331.617E-06     333.194E-06
             413               1     577.150E-06     640.301E-06     329.888E-06     349.913E-06
             414               1     700.883E-06     685.715E-06     362.898E-06     373.746E-06
             415               1     758.699E-06     727.892E-06     349.511E-06     332.374E-06
             416               1     858.938E-06     1.00835E-03     351.943E-06     364.092E-06
             417               1     1.24807E-03     866.272E-06     353.386E-06     327.526E-06
             418               1     997.554E-06     1.33600E-03     335.234E-06     284.437E-06
             419               1     255.267E-06     360.992E-06     146.615E-06     146.760E-06
             420               1     306.122E-06     266.551E-06     155.407E-06     147.058E-06
             421               1     341.934E-06     260.481E-06     87.8200E-06     82.0156E-06
             422               1     575.676E-06     532.314E-06     115.324E-06     73.2964E-06
             423               1     706.863E-06     1.00990E-03     61.2882E-06     48.7698E-06
             424               1     1.45516E-03     970.316E-06     81.2825E-06     88.1214E-06
             425               1     989.906E-06     1.50250E-03     38.2761E-06     44.2519E-06
             426               1     480.162E-06     687.142E-06    -134.667E-06    -140.514E-06
             427               1     425.994E-06     410.666E-06    -207.327E-06    -225.525E-06
             428               1     475.249E-06     494.066E-06    -218.115E-06    -260.827E-06
             429               1     782.620E-06     711.563E-06    -285.434E-06    -255.591E-06
             430               1     936.693E-06     1.16844E-03    -244.374E-06    -302.170E-06
             431               1     1.66124E-03     1.28984E-03    -372.776E-06    -344.903E-06
             432               1     1.65212E-03     1.99802E-03    -374.087E-06    -312.834E-06
             433               1     37.8191E-03     43.3178E-03     13.8498E-03     12.7766E-03
             434               1     46.6344E-03     39.2143E-03     14.8862E-03     14.8331E-03
             435               1     38.2017E-03     43.2710E-03     13.6629E-03     14.8492E-03
             436               1     38.0979E-03     37.9889E-03     14.1784E-03     14.4116E-03
             437               1     37.5704E-03     37.2695E-03     14.4419E-03     14.6062E-03
             438               1     35.9022E-03     35.9258E-03     14.5836E-03     14.2520E-03
             439               1     35.5295E-03     34.3600E-03     14.8262E-03     14.3536E-03
             440               1     34.1671E-03     34.5595E-03     15.1782E-03     14.1870E-03
             441               1     34.6431E-03     31.5635E-03     14.5863E-03     14.1444E-03
             442               1     31.4491E-03     32.7007E-03     14.9398E-03     15.1527E-03
             443               1     30.8910E-03     35.0201E-03     12.5931E-03     11.8116E-03
             444               1     37.1810E-03     31.7026E-03     13.3341E-03     13.2413E-03
             445               1     30.7217E-03     34.3197E-03     12.4864E-03     13.2562E-03
             446               1     30.3535E-03     30.3128E-03     12.8254E-03     12.9449E-03
             447               1     29.7964E-03     29.5068E-03     12.9940E-03     13.0846E-03
             448               1     28.3025E-03     28.3603E-03     13.0820E-03     12.8581E-03
             449               1     27.8811E-03     27.0881E-03     13.2328E-03     12.9148E-03
             450               1     26.8643E-03     26.6358E-03     13.4363E-03     12.8395E-03
             451               1     26.4073E-03     25.1312E-03     13.1408E-03     12.8096E-03
             452               1     25.1354E-03     25.1566E-03     13.2816E-03     13.3052E-03
             453               1     24.3550E-03     26.9792E-03     11.3338E-03     10.7927E-03
             454               1     28.1409E-03     24.6499E-03     11.8451E-03     11.6900E-03
             455               1     23.7934E-03     25.9711E-03     11.2721E-03     11.7061E-03
             456               1     23.3345E-03     23.3654E-03     11.4723E-03     11.5284E-03
             457               1     22.7336E-03     22.6917E-03     11.5058E-03     11.5969E-03
             458               1     21.6608E-03     21.8367E-03     11.4987E-03     11.5016E-03
             459               1     21.3011E-03     20.9648E-03     11.6217E-03     11.4292E-03
             460               1     20.8462E-03     20.4758E-03     11.6328E-03     11.4184E-03
             461               1     20.5534E-03     20.0972E-03     11.6985E-03     11.4588E-03
             462               1     20.2858E-03     19.8711E-03     11.6884E-03     11.3972E-03
             463               1     20.1585E-03     19.8644E-03     11.6215E-03     11.4553E-03
             464               1     17.1094E-03     17.6308E-03     9.72858E-03     9.53940E-03
             465               1     17.7589E-03     17.0552E-03     9.95284E-03     9.81996E-03
             466               1     17.0136E-03     17.1433E-03     9.80894E-03     9.80717E-03
             467               1     16.9176E-03     17.0173E-03     9.76682E-03     9.70059E-03
             468               1     29.0187E-03     27.8085E-03     15.7726E-03     14.1817E-03
             469               1     32.5634E-03     30.3447E-03     17.1296E-03     16.4435E-03
             470               1     28.7946E-03     30.6016E-03     15.8400E-03     16.5161E-03
             471               1     29.5959E-03     28.5880E-03     16.2288E-03     15.6969E-03
             472               1     28.8074E-03     28.9296E-03     15.9697E-03     15.9580E-03
             473               1     27.7748E-03     28.2882E-03     15.4219E-03     15.7247E-03
             474               1     27.5987E-03     27.8032E-03     15.4110E-03     15.5470E-03
             475               1     27.7046E-03     27.2782E-03     15.5469E-03     15.1858E-03
             476               1     27.5399E-03     26.8546E-03     15.2662E-03     15.0217E-03
             477               1     27.3131E-03     28.7133E-03     15.3902E-03     16.0839E-03
             478               1     26.3859E-03     25.7817E-03     14.3902E-03     13.2713E-03
             479               1     29.2166E-03     27.2676E-03     15.4063E-03     14.8492E-03
             480               1     26.1898E-03     27.5715E-03     14.4553E-03     14.9284E-03
             481               1     26.7087E-03     25.9864E-03     14.7380E-03     14.3594E-03
             482               1     26.0466E-03     26.1917E-03     14.5416E-03     14.5780E-03
             483               1     25.2998E-03     25.7034E-03     14.2006E-03     14.4359E-03
             484               1     25.1678E-03     25.2182E-03     14.2260E-03     14.2609E-03
             485               1     25.1449E-03     24.8924E-03     14.2758E-03     14.0991E-03
             486               1     25.0827E-03     24.5468E-03     14.2390E-03     13.9593E-03
             487               1     24.7695E-03     25.3365E-03     14.1467E-03     14.4686E-03
             488               1     23.3800E-03     23.0325E-03     12.9586E-03     12.2241E-03
             489               1     25.3176E-03     23.8514E-03     13.6477E-03     13.2095E-03
             490               1     23.3204E-03     24.0792E-03     13.0630E-03     13.2872E-03
             491               1     23.5197E-03     23.0477E-03     13.2085E-03     12.9328E-03
             492               1     23.1816E-03     23.2438E-03     13.1406E-03     13.1614E-03
             493               1     22.6850E-03     22.9683E-03     12.9529E-03     13.1011E-03
             494               1     22.5790E-03     22.7872E-03     12.9606E-03     13.0747E-03
             495               1     22.4154E-03     22.4217E-03     12.9097E-03     12.9162E-03
             496               1     22.4342E-03     22.3392E-03     12.9418E-03     12.8910E-03
             497               1     22.6769E-03     22.2254E-03     13.0900E-03     12.8311E-03
             498               1     22.1870E-03     22.1087E-03     12.8094E-03     12.7445E-03
             499               1     20.1744E-03     20.0966E-03     11.6220E-03     11.4323E-03
             500               1     20.7852E-03     20.4488E-03     11.9197E-03     11.8046E-03
             501               1     20.5492E-03     20.4529E-03     11.8416E-03     11.8013E-03
             502               1     20.2369E-03     20.2081E-03     11.6810E-03     11.5842E-03
             503               1     30.1394E-03     27.8030E-03     16.4002E-03     14.0335E-03
             504               1     34.7548E-03     29.7234E-03     18.1747E-03     15.9714E-03
             505               1     30.2582E-03     29.3980E-03     16.3324E-03     15.5649E-03
             506               1     30.4470E-03     28.3344E-03     16.4836E-03     15.3975E-03
             507               1     29.5894E-03     28.7053E-03     16.1354E-03     15.7756E-03
             508               1     28.7449E-03     28.8120E-03     15.6410E-03     15.9188E-03
             509               1     27.5598E-03     29.3236E-03     15.0389E-03     16.2058E-03
             510               1     27.3692E-03     28.7245E-03     14.9570E-03     15.7925E-03
             511               1     25.3712E-03     27.5617E-03     13.7728E-03     15.3437E-03
             512               1     26.7709E-03     28.9997E-03     15.0416E-03     16.2311E-03
             513               1     26.5662E-03     24.2218E-03     15.0709E-03     13.4271E-03
             514               1     29.1326E-03     26.2087E-03     16.2612E-03     14.8070E-03
             515               1     26.5337E-03     25.8431E-03     15.0207E-03     14.5614E-03
             516               1     26.7623E-03     25.4848E-03     15.1540E-03     14.4773E-03
             517               1     26.3566E-03     25.8618E-03     14.9734E-03     14.7333E-03
             518               1     25.8591E-03     25.9814E-03     14.6584E-03     14.8169E-03
             519               1     25.0966E-03     26.3144E-03     14.2490E-03     14.9899E-03
             520               1     24.9588E-03     25.8334E-03     14.1630E-03     14.6957E-03
             521               1     23.7488E-03     25.2128E-03     13.5025E-03     14.4118E-03
             522               1     24.8261E-03     25.9055E-03     14.2317E-03     14.8239E-03
             523               1     23.6098E-03     22.0053E-03     13.5973E-03     12.6310E-03
             524               1     24.9253E-03     23.4354E-03     14.3053E-03     13.4832E-03
             525               1     23.5127E-03     23.2672E-03     13.5445E-03     13.3943E-03
             526               1     23.9467E-03     23.1802E-03     13.7883E-03     13.3577E-03
             527               1     23.7610E-03     23.4175E-03     13.6927E-03     13.4994E-03
             528               1     23.7529E-03     23.5685E-03     13.6799E-03     13.5831E-03
             529               1     23.4349E-03     23.5908E-03     13.4864E-03     13.5933E-03
             530               1     23.2189E-03     23.8135E-03     13.3610E-03     13.7110E-03
             531               1     22.8474E-03     23.5269E-03     13.1376E-03     13.5377E-03
             532               1     22.7434E-03     23.1657E-03     13.0963E-03     13.3517E-03
             533               1     23.0054E-03     23.1981E-03     13.2623E-03     13.3618E-03
             534               1     22.3653E-03     22.0057E-03     12.9120E-03     12.6970E-03
             535               1     22.6545E-03     22.4143E-03     13.0781E-03     12.9279E-03
             536               1     22.4443E-03     22.3270E-03     12.9366E-03     12.8878E-03
             537               1     22.3904E-03     22.2503E-03     12.9127E-03     12.7922E-03
             538               1     37.8666E-03     45.5637E-03     13.5845E-03     10.2519E-03
             539               1     47.7000E-03     35.2790E-03     15.0073E-03     12.4799E-03
             540               1     35.7780E-03     40.5940E-03     13.2779E-03     13.5013E-03
             541               1     35.2149E-03     33.9999E-03     14.1183E-03     12.8829E-03
             542               1     34.6631E-03     33.9507E-03     14.6216E-03     14.1438E-03
             543               1     32.5260E-03     33.1542E-03     14.5303E-03     14.3075E-03
             544               1     32.6751E-03     32.5240E-03     15.0405E-03     15.3128E-03
             545               1     31.9275E-03     34.8656E-03     15.1636E-03     15.9844E-03
             546               1     34.0751E-03     33.3494E-03     14.0137E-03     16.2692E-03
             547               1     29.7967E-03     37.2370E-03     14.1772E-03     17.0238E-03
             548               1     29.2696E-03     32.5664E-03     13.0665E-03     10.9317E-03
             549               1     34.9007E-03     27.6645E-03     14.1489E-03     12.5324E-03
             550               1     28.0431E-03     30.7303E-03     12.9811E-03     13.2490E-03
             551               1     27.9899E-03     26.8815E-03     13.6051E-03     12.6931E-03
             552               1     27.7946E-03     27.0659E-03     13.9124E-03     13.5105E-03
             553               1     26.5778E-03     26.6648E-03     13.8622E-03     13.6188E-03
             554               1     26.7693E-03     26.5593E-03     14.1745E-03     14.2134E-03
             555               1     26.2737E-03     27.9013E-03     14.1584E-03     14.8138E-03
             556               1     26.4887E-03     27.4259E-03     13.5207E-03     14.8970E-03
             557               1     24.7828E-03     28.6859E-03     13.4401E-03     15.1703E-03
             558               1     23.6292E-03     24.2441E-03     12.3362E-03     11.2888E-03
             559               1     26.2286E-03     23.3158E-03     13.0809E-03     12.3774E-03
             560               1     23.3695E-03     24.6713E-03     12.4558E-03     12.7572E-03
             561               1     23.4663E-03     22.8560E-03     12.7998E-03     12.3132E-03
             562               1     23.6527E-03     22.8240E-03     13.0572E-03     12.5948E-03
             563               1     22.8454E-03     22.6561E-03     12.8795E-03     12.6722E-03
             564               1     23.2980E-03     22.5744E-03     13.2570E-03     12.8234E-03
             565               1     22.8902E-03     22.9316E-03     13.0883E-03     13.1374E-03
             566               1     22.8803E-03     23.6157E-03     13.1478E-03     13.5536E-03
             567               1     22.5295E-03     23.6654E-03     12.8859E-03     13.5954E-03
             568               1     21.9129E-03     23.1463E-03     12.6116E-03     13.2903E-03
             569               1     22.5807E-03     21.9910E-03     13.0035E-03     12.6260E-03
             570               1     23.3123E-03     23.0261E-03     13.4110E-03     13.2771E-03
             571               1     22.9245E-03     23.1782E-03     13.1906E-03     13.3314E-03
             572               1     22.3826E-03     22.2565E-03     12.9032E-03     12.8290E-03
             573               1     45.2584E-03     62.7106E-03     4.96562E-03     5.06251E-03
             574               1     62.8377E-03     48.5148E-03     7.18857E-03     8.06207E-03
             575               1     42.1270E-03     54.4654E-03     8.10681E-03     8.49133E-03
             576               1     44.1207E-03     44.3216E-03     9.98962E-03     9.90213E-03
             577               1     40.5321E-03     43.2894E-03     10.3314E-03     10.5954E-03
             578               1     38.0964E-03     41.0654E-03     12.1591E-03     11.5532E-03
             579               1     38.1314E-03     37.9940E-03     13.1608E-03     12.5558E-03
             580               1     35.9873E-03     40.0265E-03     14.9447E-03     14.2350E-03
             581               1     43.0285E-03     39.0208E-03     17.2209E-03     16.6687E-03
             582               1     40.9959E-03     45.4793E-03     19.1275E-03     18.4572E-03
             583               1     31.7908E-03     42.8169E-03     7.46646E-03     7.40379E-03
             584               1     43.4350E-03     34.4407E-03     8.87702E-03     9.44412E-03
             585               1     30.1287E-03     37.7042E-03     9.22376E-03     9.45746E-03
             586               1     31.1876E-03     31.1952E-03     10.4054E-03     10.2640E-03
             587               1     28.7688E-03     30.1611E-03     10.5435E-03     10.6685E-03
             588               1     27.2979E-03     28.6809E-03     11.6726E-03     11.2668E-03
             589               1     27.4372E-03     27.0715E-03     12.4028E-03     11.9301E-03
             590               1     26.9112E-03     27.9056E-03     13.5103E-03     13.0384E-03
             591               1     30.1959E-03     28.9337E-03     15.1338E-03     14.8224E-03
             592               1     30.7102E-03     31.7268E-03     16.3004E-03     15.7823E-03
             593               1     23.5370E-03     28.5323E-03     9.56526E-03     9.37417E-03
             594               1     29.7090E-03     25.2332E-03     10.2267E-03     10.5210E-03
             595               1     22.7695E-03     26.2990E-03     10.0477E-03     10.1958E-03
             596               1     23.0478E-03     22.6736E-03     10.5809E-03     10.3504E-03
             597               1     21.3819E-03     22.0686E-03     10.4106E-03     10.5984E-03
             598               1     20.8000E-03     20.7639E-03     10.9395E-03     10.5803E-03
             599               1     20.3673E-03     20.5825E-03     11.0839E-03     11.0935E-03
             600               1     20.9869E-03     20.2346E-03     11.7703E-03     11.2243E-03
             601               1     21.4249E-03     21.0792E-03     12.1604E-03     12.0078E-03
             602               1     23.0406E-03     22.7584E-03     13.2382E-03     13.0622E-03
             603               1     23.8702E-03     23.2355E-03     13.7473E-03     13.3534E-03
             604               1     21.1889E-03     21.0508E-03     12.1141E-03     11.7436E-03
             605               1     21.8117E-03     21.4277E-03     12.2453E-03     12.3116E-03
             606               1     21.3498E-03     21.7021E-03     12.3232E-03     12.4205E-03
             607               1     21.9014E-03     21.2260E-03     12.6206E-03     12.2534E-03
             608               1     62.7660E-03     74.4489E-03    -6.02549E-03    -2.42200E-03
             609               1     69.5844E-03     56.2835E-03    -2.60965E-03    -127.887E-06
             610               1     53.7133E-03     61.1064E-03     4.02026E-03     3.03693E-03
             611               1     53.6137E-03     50.8179E-03     3.94520E-03     5.40039E-03
             612               1     48.4193E-03     49.2148E-03     6.17808E-03     6.07067E-03
             613               1     45.3748E-03     44.7885E-03     7.60698E-03     7.69028E-03
             614               1     42.5939E-03     41.4072E-03     9.64759E-03     8.83531E-03
             615               1     39.2229E-03     39.5664E-03     11.1830E-03     10.6078E-03
             616               1     42.7245E-03     36.9666E-03     16.7645E-03     14.0423E-03
             617               1     41.4294E-03     39.3938E-03     20.0784E-03     17.4258E-03
             618               1     42.5897E-03     51.4602E-03    -520.974E-06     1.80265E-03
             619               1     47.0346E-03     38.2752E-03     1.63987E-03     3.13598E-03
             620               1     36.1340E-03     41.1663E-03     5.76041E-03     4.99560E-03
             621               1     35.3352E-03     33.6960E-03     5.53378E-03     6.52370E-03
             622               1     31.4854E-03     32.1259E-03     6.93229E-03     6.88210E-03
             623               1     29.1603E-03     28.6744E-03     7.82895E-03     7.88817E-03
             624               1     27.0278E-03     26.5501E-03     9.09601E-03     8.68401E-03
             625               1     25.4843E-03     24.6003E-03     10.2807E-03     9.71084E-03
             626               1     27.5639E-03     24.6696E-03     13.6729E-03     11.9246E-03
             627               1     28.4302E-03     26.1318E-03     15.6602E-03     14.1342E-03
             628               1     27.8036E-03     33.7828E-03     4.32357E-03     5.51839E-03
             629               1     30.1491E-03     25.3185E-03     5.41539E-03     5.99968E-03
             630               1     23.5514E-03     26.3237E-03     7.32716E-03     6.68837E-03
             631               1     22.2953E-03     21.7761E-03     6.87994E-03     7.48489E-03
             632               1     19.7367E-03     20.1094E-03     7.44992E-03     7.43411E-03
             633               1     18.1843E-03     18.3518E-03     7.78151E-03     7.98431E-03
             634               1     16.9153E-03     16.6439E-03     8.16749E-03     8.11485E-03
             635               1     16.3638E-03     16.4295E-03     8.77749E-03     8.72921E-03
             636               1     17.0187E-03     15.8371E-03     9.60408E-03     8.99920E-03
             637               1     19.2295E-03     17.9697E-03     11.0660E-03     10.1915E-03
             638               1     20.7982E-03     20.2647E-03     11.7700E-03     11.2224E-03
             639               1     16.6930E-03     18.8622E-03     8.41166E-03     8.84368E-03
             640               1     16.5887E-03     15.4049E-03     8.74096E-03     8.60576E-03
             641               1     16.3709E-03     15.6912E-03     9.44672E-03     8.95056E-03
             642               1     16.5974E-03     17.3096E-03     9.46974E-03     9.62397E-03
             643               1     553.902E-06     567.947E-06     291.005E-06     296.911E-06
             644               1     620.558E-06     645.570E-06     342.920E-06     344.653E-06
             645               1     605.463E-06     631.429E-06     334.088E-06     338.718E-06
             646               1     599.711E-06     632.244E-06     333.199E-06     337.212E-06
             647               1     595.646E-06     633.932E-06     333.726E-06     337.182E-06
             648               1     591.527E-06     637.696E-06     333.325E-06     337.620E-06
             649               1     588.496E-06     638.956E-06     333.702E-06     337.217E-06
             650               1     585.255E-06     642.339E-06     333.415E-06     337.504E-06
             651               1     582.889E-06     644.320E-06     333.549E-06     337.368E-06
             652               1     581.101E-06     647.187E-06     333.612E-06     337.318E-06
             653               1     578.998E-06     649.892E-06     333.318E-06     337.607E-06
             654               1     579.110E-06     652.284E-06     333.932E-06     337.052E-06
             655               1     576.872E-06     655.704E-06     332.974E-06     338.000E-06
             656               1     579.537E-06     657.797E-06     334.509E-06     336.711E-06
             657               1     576.815E-06     661.910E-06     332.552E-06     338.676E-06
             658               1     582.955E-06     664.483E-06     335.621E-06     336.630E-06
             659               1     579.834E-06     668.564E-06     332.376E-06     339.487E-06
             660               1     591.489E-06     676.012E-06     338.307E-06     339.000E-06
             661               1     601.998E-06     684.620E-06     343.289E-06     350.027E-06
             662               1     698.276E-06     684.451E-06     403.148E-06     395.121E-06
             663               1     591.420E-06     616.820E-06     341.336E-06     355.960E-06
             664               1     580.762E-06     590.358E-06     334.939E-06     340.402E-06
             665               1     582.923E-06     596.394E-06     335.830E-06     343.482E-06
             666               1     583.317E-06     598.591E-06     335.560E-06     344.230E-06
             667               1     586.130E-06     597.744E-06     336.564E-06     343.089E-06
             668               1     585.551E-06     600.948E-06     335.471E-06     344.173E-06
             669               1     588.491E-06     601.088E-06     336.299E-06     343.350E-06
             670               1     589.518E-06     603.561E-06     335.885E-06     343.763E-06
             671               1     591.295E-06     605.712E-06     335.782E-06     343.867E-06
             672               1     594.706E-06     606.644E-06     336.517E-06     343.132E-06
             673               1     594.520E-06     611.607E-06     334.999E-06     344.650E-06
             674               1     601.296E-06     609.986E-06     337.493E-06     342.156E-06
             675               1     597.933E-06     618.985E-06     333.807E-06     345.838E-06
             676               1     609.285E-06     613.513E-06     338.849E-06     340.797E-06
             677               1     602.136E-06     627.520E-06     332.534E-06     347.233E-06
             678               1     617.083E-06     618.583E-06     339.664E-06     339.925E-06
             679               1     607.306E-06     630.452E-06     331.129E-06     344.613E-06
             680               1     623.665E-06     638.666E-06     339.683E-06     347.677E-06
             681               1     567.124E-06     578.968E-06     296.425E-06     306.834E-06
             682               1     642.571E-06     645.465E-06     350.535E-06     352.831E-06
             683               1     636.543E-06     624.499E-06     342.382E-06     346.530E-06
             684               1     637.816E-06     618.764E-06     341.316E-06     345.301E-06
             685               1     639.996E-06     614.397E-06     341.843E-06     345.343E-06
             686               1     642.410E-06     611.852E-06     341.471E-06     345.771E-06
             687               1     644.903E-06     607.719E-06     341.863E-06     345.371E-06
             688               1     647.304E-06     605.647E-06     341.570E-06     345.661E-06
             689               1     649.672E-06     603.011E-06     341.709E-06     345.526E-06
             690               1     652.628E-06     601.167E-06     341.756E-06     345.466E-06
             691               1     654.391E-06     600.229E-06     341.472E-06     345.754E-06
             692               1     658.431E-06     598.357E-06     342.019E-06     345.149E-06
             693               1     658.897E-06     599.541E-06     341.084E-06     346.093E-06
             694               1     664.843E-06     597.017E-06     342.348E-06     344.583E-06
             695               1     663.024E-06     601.103E-06     340.450E-06     346.502E-06
             696               1     671.596E-06     596.837E-06     342.385E-06     343.523E-06
             697               1     666.096E-06     603.867E-06     339.137E-06     346.178E-06
             698               1     675.726E-06     596.633E-06     340.636E-06     341.398E-06
             699               1     686.862E-06     618.908E-06     345.514E-06     350.544E-06
             700               1     5.24455E-03     7.88235E-03     420.003E-06    -281.173E-06
             701               1     2.80281E-03     2.73404E-03     1.58486E-03     1.34051E-03
             702               1     3.84761E-03     3.21983E-03     1.76863E-03     1.74667E-03
             703               1     5.70115E-03     4.96448E-03     2.54100E-03     2.49276E-03
             704               1     6.41945E-03     5.74842E-03     2.77028E-03     2.78427E-03
             705               1     7.35000E-03     6.65089E-03     3.24335E-03     3.23337E-03
             706               1     7.64747E-03     6.97208E-03     3.36314E-03     3.37200E-03
             707               1     8.12195E-03     7.43709E-03     3.62027E-03     3.61929E-03
             708               1     8.26219E-03     7.58140E-03     3.68244E-03     3.68639E-03
             709               1     8.52502E-03     7.84184E-03     3.81984E-03     3.82130E-03
             710               1     8.64506E-03     7.96076E-03     3.88081E-03     3.88271E-03
             711               1     8.82606E-03     8.14313E-03     3.97004E-03     3.97391E-03
             712               1     8.99867E-03     8.31458E-03     4.07985E-03     4.07883E-03
             713               1     9.16846E-03     8.50185E-03     4.17595E-03     4.18828E-03
             714               1     9.46115E-03     8.78965E-03     4.40700E-03     4.39612E-03
             715               1     9.65503E-03     9.06120E-03     4.57217E-03     4.61063E-03
             716               1     10.1461E-03     9.52779E-03     5.03633E-03     5.00643E-03
             717               1     10.3265E-03     9.97259E-03     5.31757E-03     5.42878E-03
             718               1     11.1674E-03     10.7809E-03     6.14886E-03     6.12397E-03
             719               1     4.01019E-03     3.00647E-03    -1.02413E-03    -1.04793E-03
             720               1     3.16356E-03     2.76823E-03     1.82217E-03     1.50582E-03
             721               1     5.38153E-03     4.78194E-03     2.52778E-03     2.37373E-03
             722               1     6.28226E-03     5.85475E-03     2.81069E-03     2.81077E-03
             723               1     7.40627E-03     6.87366E-03     3.30942E-03     3.26939E-03
             724               1     7.61869E-03     7.18645E-03     3.39707E-03     3.41966E-03
             725               1     8.14210E-03     7.65552E-03     3.66538E-03     3.65845E-03
             726               1     8.18202E-03     7.73244E-03     3.69460E-03     3.70701E-03
             727               1     8.45728E-03     7.98581E-03     3.82719E-03     3.82932E-03
             728               1     8.49398E-03     8.03326E-03     3.85197E-03     3.85932E-03
             729               1     8.67568E-03     8.20347E-03     3.92360E-03     3.92866E-03
             730               1     8.75433E-03     8.28674E-03     3.97100E-03     3.97588E-03
             731               1     8.91073E-03     8.43901E-03     4.01919E-03     4.03213E-03
             732               1     9.06399E-03     8.58961E-03     4.12676E-03     4.12353E-03
             733               1     9.22676E-03     8.78297E-03     4.17947E-03     4.22056E-03
             734               1     9.50621E-03     9.02726E-03     4.42963E-03     4.40232E-03
             735               1     9.66518E-03     9.35018E-03     4.54426E-03     4.65677E-03
             736               1     10.0484E-03     9.66420E-03     5.05287E-03     5.01929E-03
             737               1     10.2488E-03     10.3414E-03     5.39778E-03     5.63833E-03
             738               1     1.88959E-03     1.29179E-03    -1.06145E-03    -712.762E-06
             739               1     2.34415E-03     2.80933E-03     1.09192E-03     1.26040E-03
             740               1     5.59818E-03     5.45531E-03     2.67731E-03     2.63790E-03
             741               1     7.26133E-03     6.98258E-03     3.33703E-03     3.29874E-03
             742               1     7.68093E-03     7.49789E-03     3.54983E-03     3.57360E-03
             743               1     8.30585E-03     8.01764E-03     3.83124E-03     3.81558E-03
             744               1     8.24606E-03     8.03020E-03     3.82635E-03     3.84304E-03
             745               1     8.50214E-03     8.24179E-03     3.92461E-03     3.92499E-03
             746               1     8.43863E-03     8.20439E-03     3.90575E-03     3.91658E-03
             747               1     8.58821E-03     8.33359E-03     3.94444E-03     3.94938E-03
             748               1     8.57340E-03     8.33073E-03     3.94113E-03     3.95000E-03
             749               1     8.69428E-03     8.43557E-03     3.95447E-03     3.96293E-03
             750               1     8.71937E-03     8.47437E-03     3.97296E-03     3.97908E-03
             751               1     8.84034E-03     8.58192E-03     3.96763E-03     3.99037E-03
             752               1     8.91587E-03     8.67307E-03     4.04377E-03     4.03693E-03
             753               1     9.07229E-03     8.84511E-03     4.05232E-03     4.11495E-03
             754               1     9.27078E-03     9.03853E-03     4.32032E-03     4.27609E-03
             755               1     9.60224E-03     9.51515E-03     4.58631E-03     4.68938E-03
             756               1     10.0245E-03     9.94226E-03     5.27404E-03     5.23551E-03
             757               1     2.92560E-03     3.14714E-03    -1.03772E-03    -837.731E-06
             758               1     4.01741E-03     4.15768E-03     1.12425E-03     1.35774E-03
             759               1     6.05329E-03     6.36459E-03     2.65829E-03     2.80057E-03
             760               1     7.44955E-03     7.51648E-03     3.50855E-03     3.55076E-03
             761               1     8.35830E-03     8.30643E-03     3.95675E-03     3.95931E-03
             762               1     8.35079E-03     8.34899E-03     4.02010E-03     4.03217E-03
             763               1     8.59945E-03     8.54700E-03     4.08442E-03     4.08621E-03
             764               1     8.47040E-03     8.45092E-03     4.04167E-03     4.05100E-03
             765               1     8.57098E-03     8.53044E-03     4.03346E-03     4.03863E-03
             766               1     8.48842E-03     8.46427E-03     3.99631E-03     4.00598E-03
             767               1     8.56492E-03     8.52438E-03     3.97795E-03     3.98324E-03
             768               1     8.50972E-03     8.49042E-03     3.94817E-03     3.95905E-03
             769               1     8.58636E-03     8.53853E-03     3.91889E-03     3.92567E-03
             770               1     8.52618E-03     8.52592E-03     3.89342E-03     3.90425E-03
             771               1     8.63897E-03     8.57962E-03     3.85899E-03     3.87430E-03
             772               1     8.61021E-03     8.64352E-03     3.90065E-03     3.89960E-03
             773               1     8.92615E-03     8.85630E-03     3.99257E-03     4.01333E-03
             774               1     9.33509E-03     9.30906E-03     4.43291E-03     4.35188E-03
             775               1     10.6886E-03     10.5362E-03     5.44957E-03     5.29462E-03
             776               1     5.65992E-03     5.49975E-03    -954.826E-06    -644.055E-06
             777               1     5.48401E-03     6.04456E-03     1.39060E-03     1.59427E-03
             778               1     6.88322E-03     7.19836E-03     2.80283E-03     2.97447E-03
             779               1     8.13495E-03     8.38491E-03     3.80992E-03     3.87287E-03
             780               1     8.33301E-03     8.51999E-03     4.11295E-03     4.12066E-03
             781               1     8.60531E-03     8.77049E-03     4.19614E-03     4.21271E-03
             782               1     8.50937E-03     8.67926E-03     4.19737E-03     4.19900E-03
             783               1     8.55886E-03     8.72452E-03     4.14335E-03     4.15192E-03
             784               1     8.46243E-03     8.63933E-03     4.10284E-03     4.10923E-03
             785               1     8.49258E-03     8.66427E-03     4.05086E-03     4.05606E-03
             786               1     8.41295E-03     8.60276E-03     4.00708E-03     4.01724E-03
             787               1     8.45258E-03     8.62227E-03     3.96492E-03     3.96587E-03
             788               1     8.34917E-03     8.56422E-03     3.90759E-03     3.92258E-03
             789               1     8.41704E-03     8.56976E-03     3.86959E-03     3.86238E-03
             790               1     8.26989E-03     8.53697E-03     3.80243E-03     3.82514E-03
             791               1     8.48521E-03     8.59419E-03     3.81802E-03     3.79304E-03
             792               1     8.49759E-03     8.80563E-03     3.88393E-03     3.89622E-03
             793               1     9.32784E-03     9.34773E-03     4.24087E-03     4.16546E-03
             794               1     11.0690E-03     10.8808E-03     5.28815E-03     5.07270E-03
             795               1     7.51804E-03     8.10540E-03    -552.692E-06    -267.711E-06
             796               1     7.61247E-03     7.84395E-03     1.61600E-03     1.86946E-03
             797               1     8.39509E-03     8.79658E-03     3.50917E-03     3.54087E-03
             798               1     8.20132E-03     8.56774E-03     3.97840E-03     3.98022E-03
             799               1     8.43047E-03     8.83590E-03     4.13244E-03     4.17552E-03
             800               1     8.45858E-03     8.79433E-03     4.26960E-03     4.25894E-03
             801               1     8.45374E-03     8.82437E-03     4.19132E-03     4.20970E-03
             802               1     8.42545E-03     8.78197E-03     4.20095E-03     4.20045E-03
             803               1     8.41219E-03     8.78524E-03     4.12101E-03     4.12854E-03
             804               1     8.36373E-03     8.74526E-03     4.09448E-03     4.10077E-03
             805               1     8.37298E-03     8.75258E-03     4.03989E-03     4.04111E-03
             806               1     8.29268E-03     8.70229E-03     3.99146E-03     4.00355E-03
             807               1     8.33491E-03     8.70621E-03     3.96033E-03     3.94982E-03
             808               1     8.19608E-03     8.65242E-03     3.88346E-03     3.90692E-03
             809               1     8.34193E-03     8.67073E-03     3.89814E-03     3.85844E-03
             810               1     8.18554E-03     8.72947E-03     3.81466E-03     3.86447E-03
             811               1     8.70959E-03     8.95255E-03     3.98197E-03     3.89045E-03
             812               1     9.03800E-03     9.62759E-03     4.12868E-03     4.20004E-03
             813               1     10.6640E-03     10.8870E-03     4.62755E-03     4.59111E-03
             814               1     11.6502E-03     11.1568E-03    -270.648E-06    -125.906E-06
             815               1     10.3437E-03     10.8757E-03     3.25493E-03     3.10708E-03
             816               1     8.42991E-03     9.00607E-03     3.78807E-03     3.71533E-03
             817               1     8.21708E-03     8.86487E-03     3.86341E-03     3.89975E-03
             818               1     8.28504E-03     8.80485E-03     4.17402E-03     4.14990E-03
             819               1     8.19424E-03     8.77832E-03     4.09745E-03     4.12628E-03
             820               1     8.31330E-03     8.84167E-03     4.22255E-03     4.21484E-03
             821               1     8.26369E-03     8.83055E-03     4.13597E-03     4.14675E-03
             822               1     8.30235E-03     8.86212E-03     4.16274E-03     4.16388E-03
             823               1     8.28318E-03     8.86045E-03     4.09831E-03     4.10134E-03
             824               1     8.26288E-03     8.85487E-03     4.07947E-03     4.08592E-03
             825               1     8.28170E-03     8.86617E-03     4.04643E-03     4.04197E-03
             826               1     8.21166E-03     8.83898E-03     3.99964E-03     4.01311E-03
             827               1     8.31652E-03     8.87998E-03     4.01866E-03     3.99387E-03
             828               1     8.21397E-03     8.89957E-03     3.95170E-03     3.98410E-03
             829               1     8.56783E-03     9.06029E-03     4.08503E-03     4.01300E-03
             830               1     8.55370E-03     9.37179E-03     4.02595E-03     4.11431E-03
             831               1     9.56487E-03     10.0174E-03     4.36539E-03     4.26053E-03
             832               1     10.1363E-03     11.2319E-03     4.43347E-03     4.67372E-03
             833               1     15.2021E-03     17.2272E-03     2.36470E-03     1.96976E-03
             834               1     9.73205E-03     10.8814E-03     3.70143E-03     3.52720E-03
             835               1     8.12749E-03     9.17557E-03     3.30545E-03     3.32013E-03
             836               1     8.11124E-03     8.93003E-03     3.89394E-03     3.85922E-03
             837               1     7.83144E-03     8.65517E-03     3.83378E-03     3.85523E-03
             838               1     8.12181E-03     8.85697E-03     4.12600E-03     4.11652E-03
             839               1     8.04064E-03     8.80278E-03     4.06827E-03     4.07753E-03
             840               1     8.20604E-03     8.94549E-03     4.18231E-03     4.18018E-03
             841               1     8.15791E-03     8.92159E-03     4.11979E-03     4.12253E-03
             842               1     8.21391E-03     8.98275E-03     4.14262E-03     4.14397E-03
             843               1     8.19878E-03     8.98109E-03     4.09945E-03     4.09906E-03
             844               1     8.19527E-03     8.99719E-03     4.08144E-03     4.08561E-03
             845               1     8.25254E-03     9.04451E-03     4.08434E-03     4.07785E-03
             846               1     8.23983E-03     9.07556E-03     4.05676E-03     4.06722E-03
             847               1     8.47903E-03     9.24736E-03     4.15650E-03     4.13218E-03
             848               1     8.55117E-03     9.44129E-03     4.15103E-03     4.18181E-03
             849               1     9.23503E-03     9.94360E-03     4.43936E-03     4.37930E-03
             850               1     9.54983E-03     10.6415E-03     4.44885E-03     4.55453E-03
             851               1     11.2980E-03     12.1002E-03     5.05058E-03     4.97194E-03
             852               1     4.89396E-03     4.33540E-03    -1.41374E-03    -2.38697E-03
             853               1     7.95736E-03     6.76383E-03    -521.902E-06    -842.270E-06
             854               1     10.0109E-03     9.21474E-03     247.187E-06     165.834E-06
             855               1     11.7019E-03     11.0791E-03     1.14652E-03     1.07235E-03
             856               1     12.9679E-03     12.4842E-03     1.75214E-03     1.74473E-03
             857               1     14.0843E-03     13.6264E-03     2.44203E-03     2.42631E-03
             858               1     14.8753E-03     14.4497E-03     2.86794E-03     2.87387E-03
             859               1     15.6422E-03     15.2120E-03     3.37035E-03     3.37118E-03
             860               1     16.1739E-03     15.7415E-03     3.68360E-03     3.69188E-03
             861               1     16.7348E-03     16.2924E-03     4.06068E-03     4.06704E-03
             862               1     17.1502E-03     16.6932E-03     4.34001E-03     4.34956E-03
             863               1     17.6004E-03     17.1316E-03     4.66827E-03     4.68025E-03
             864               1     17.9809E-03     17.4868E-03     4.99027E-03     5.00233E-03
             865               1     18.3730E-03     17.8642E-03     5.34829E-03     5.37299E-03
             866               1     18.7524E-03     18.2001E-03     5.79145E-03     5.80820E-03
             867               1     19.0918E-03     18.5235E-03     6.25665E-03     6.30836E-03
             868               1     19.4519E-03     18.8106E-03     6.89894E-03     6.92751E-03
             869               1     19.6704E-03     19.0298E-03     7.52445E-03     7.62788E-03
             870               1     19.9005E-03     19.1698E-03     8.43850E-03     8.50121E-03
             871               1     5.06385E-03     6.89767E-03    -1.57990E-03    -1.84506E-03
             872               1     8.74647E-03     8.43721E-03     422.874E-06    -107.840E-06
             873               1     11.2948E-03     10.8364E-03     1.20225E-03     923.717E-06
             874               1     12.8730E-03     12.5236E-03     1.75378E-03     1.66942E-03
             875               1     14.1282E-03     13.7700E-03     2.43713E-03     2.35712E-03
             876               1     14.9339E-03     14.6597E-03     2.81730E-03     2.81682E-03
             877               1     15.7193E-03     15.4312E-03     3.32013E-03     3.30875E-03
             878               1     16.1887E-03     15.9316E-03     3.58999E-03     3.60760E-03
             879               1     16.7509E-03     16.4791E-03     3.94736E-03     3.95809E-03
             880               1     17.0960E-03     16.8319E-03     4.16713E-03     4.19025E-03
             881               1     17.5535E-03     17.2744E-03     4.44533E-03     4.46703E-03
             882               1     17.8737E-03     17.5963E-03     4.67374E-03     4.70334E-03
             883               1     18.2857E-03     17.9937E-03     4.93702E-03     4.97715E-03
             884               1     18.6174E-03     18.3259E-03     5.23669E-03     5.27701E-03
             885               1     18.9906E-03     18.6957E-03     5.54748E-03     5.62698E-03
             886               1     19.3093E-03     19.0118E-03     5.99035E-03     6.05022E-03
             887               1     19.5751E-03     19.3219E-03     6.42147E-03     6.56697E-03
             888               1     19.7046E-03     19.4685E-03     7.06702E-03     7.17452E-03
             889               1     19.7577E-03     19.6677E-03     7.75351E-03     7.95835E-03
             890               1     8.03569E-03     7.94130E-03    -1.35736E-03    -1.07843E-03
             891               1     9.50988E-03     10.3762E-03     541.569E-06     518.024E-06
             892               1     12.2254E-03     12.2959E-03     1.76315E-03     1.57375E-03
             893               1     13.9525E-03     13.8509E-03     2.53670E-03     2.41059E-03
             894               1     14.9637E-03     14.8984E-03     2.94924E-03     2.91840E-03
             895               1     15.8599E-03     15.7247E-03     3.46923E-03     3.43261E-03
             896               1     16.2830E-03     16.2038E-03     3.68455E-03     3.69881E-03
             897               1     16.8439E-03     16.7317E-03     4.01190E-03     4.01680E-03
             898               1     17.0903E-03     17.0072E-03     4.15553E-03     4.18244E-03
             899               1     17.5200E-03     17.4163E-03     4.37281E-03     4.39414E-03
             900               1     17.7434E-03     17.6603E-03     4.50542E-03     4.54030E-03
             901               1     18.1319E-03     18.0290E-03     4.68008E-03     4.71617E-03
             902               1     18.3767E-03     18.3037E-03     4.84755E-03     4.89276E-03
             903               1     18.7547E-03     18.6630E-03     5.03182E-03     5.09730E-03
             904               1     19.0187E-03     18.9745E-03     5.29881E-03     5.35486E-03
             905               1     19.3562E-03     19.3222E-03     5.56769E-03     5.68262E-03
             906               1     19.5617E-03     19.5857E-03     6.03096E-03     6.09394E-03
             907               1     19.7779E-03     19.9039E-03     6.57017E-03     6.71098E-03
             908               1     19.7071E-03     19.8811E-03     7.35638E-03     7.39879E-03
             909               1     9.44543E-03     10.3321E-03    -971.457E-06    -1.01639E-03
             910               1     11.4339E-03     11.7711E-03     783.588E-06     921.453E-06
             911               1     13.1564E-03     13.6870E-03     2.18087E-03     2.21377E-03
             912               1     14.7281E-03     14.9677E-03     2.99117E-03     2.96097E-03
             913               1     15.8779E-03     15.9796E-03     3.66322E-03     3.63610E-03
             914               1     16.3519E-03     16.4767E-03     3.90709E-03     3.91477E-03
             915               1     16.9650E-03     17.0195E-03     4.23908E-03     4.23992E-03
             916               1     17.1154E-03     17.2097E-03     4.31754E-03     4.34148E-03
             917               1     17.5170E-03     17.5787E-03     4.47641E-03     4.49387E-03
             918               1     17.6319E-03     17.7255E-03     4.52011E-03     4.55289E-03
             919               1     17.9731E-03     18.0424E-03     4.61315E-03     4.63963E-03
             920               1     18.1150E-03     18.2279E-03     4.66703E-03     4.70899E-03
             921               1     18.4579E-03     18.5389E-03     4.74799E-03     4.78801E-03
             922               1     18.6324E-03     18.7902E-03     4.85596E-03     4.90586E-03
             923               1     18.9980E-03     19.1156E-03     4.98266E-03     5.04772E-03
             924               1     19.2076E-03     19.4333E-03     5.24780E-03     5.28673E-03
             925               1     19.5741E-03     19.7966E-03     5.58247E-03     5.65978E-03
             926               1     19.8416E-03     20.1137E-03     6.20925E-03     6.18388E-03
             927               1     20.3763E-03     20.7055E-03     7.25757E-03     7.18982E-03
             928               1     11.9008E-03     12.3445E-03    -796.718E-06    -489.191E-06
             929               1     12.8146E-03     13.5465E-03     1.20151E-03     1.28073E-03
             930               1     14.4348E-03     14.9183E-03     2.49817E-03     2.62776E-03
             931               1     15.7064E-03     16.1538E-03     3.62443E-03     3.68614E-03
             932               1     16.3373E-03     16.6944E-03     4.08437E-03     4.11532E-03
             933               1     17.0611E-03     17.3142E-03     4.52989E-03     4.55061E-03
             934               1     17.1315E-03     17.4079E-03     4.59829E-03     4.62110E-03
             935               1     17.5269E-03     17.7536E-03     4.72204E-03     4.74102E-03
             936               1     17.5385E-03     17.7988E-03     4.69923E-03     4.72656E-03
             937               1     17.8301E-03     18.0626E-03     4.71997E-03     4.73969E-03
             938               1     17.8760E-03     18.1525E-03     4.68701E-03     4.72124E-03
             939               1     18.1595E-03     18.4021E-03     4.68390E-03     4.70379E-03
             940               1     18.2395E-03     18.5613E-03     4.66958E-03     4.71059E-03
             941               1     18.5674E-03     18.8282E-03     4.68476E-03     4.70755E-03
             942               1     18.6946E-03     19.0904E-03     4.75434E-03     4.78888E-03
             943               1     19.1221E-03     19.4261E-03     4.88345E-03     4.90891E-03
             944               1     19.4368E-03     19.8662E-03     5.24850E-03     5.21411E-03
             945               1     20.0397E-03     20.4352E-03     5.81440E-03     5.79488E-03
             946               1     21.1048E-03     21.2721E-03     6.90712E-03     6.70211E-03
             947               1     13.6411E-03     14.3699E-03    -278.139E-06    -179.140E-06
             948               1     14.7889E-03     15.4021E-03     1.48728E-03     1.74515E-03
             949               1     15.8101E-03     16.4504E-03     3.22172E-03     3.34106E-03
             950               1     16.4086E-03     16.9713E-03     4.01728E-03     4.13114E-03
             951               1     17.1968E-03     17.6701E-03     4.76298E-03     4.83789E-03
             952               1     17.1409E-03     17.5978E-03     4.90362E-03     4.93908E-03
             953               1     17.5358E-03     17.9358E-03     5.03478E-03     5.07022E-03
             954               1     17.4496E-03     17.8706E-03     4.98696E-03     5.01019E-03
             955               1     17.6975E-03     18.0901E-03     4.94867E-03     4.96903E-03
             956               1     17.6674E-03     18.0960E-03     4.86188E-03     4.88752E-03
             957               1     17.8891E-03     18.2888E-03     4.79086E-03     4.80062E-03
             958               1     17.8967E-03     18.3615E-03     4.69959E-03     4.73035E-03
             959               1     18.1527E-03     18.5603E-03     4.63753E-03     4.63370E-03
             960               1     18.1884E-03     18.7212E-03     4.56761E-03     4.59989E-03
             961               1     18.5612E-03     18.9766E-03     4.56128E-03     4.53948E-03
             962               1     18.7187E-03     19.3282E-03     4.62663E-03     4.63333E-03
             963               1     19.3763E-03     19.7987E-03     4.82351E-03     4.78582E-03
             964               1     20.1658E-03     20.6423E-03     5.42977E-03     5.30193E-03
             965               1     21.3004E-03     21.7837E-03     6.24737E-03     6.20471E-03
             966               1     16.2182E-03     16.7992E-03     22.8433E-06     324.990E-06
             967               1     16.6783E-03     17.3867E-03     2.40948E-03     2.54343E-03
             968               1     17.0258E-03     17.7408E-03     3.66261E-03     3.86659E-03
             969               1     17.7176E-03     18.3332E-03     4.93052E-03     5.04886E-03
             970               1     17.2539E-03     17.8682E-03     5.16782E-03     5.23267E-03
             971               1     17.5836E-03     18.1546E-03     5.33760E-03     5.40270E-03
             972               1     17.3720E-03     17.9437E-03     5.31286E-03     5.33708E-03
             973               1     17.5626E-03     18.1150E-03     5.22748E-03     5.25740E-03
             974               1     17.4791E-03     18.0533E-03     5.12597E-03     5.14439E-03
             975               1     17.6430E-03     18.1992E-03     4.99937E-03     5.00911E-03
             976               1     17.6130E-03     18.2140E-03     4.87477E-03     4.89540E-03
             977               1     17.7968E-03     18.3570E-03     4.75891E-03     4.74741E-03
             978               1     17.7818E-03     18.4325E-03     4.62309E-03     4.64660E-03
             979               1     18.0497E-03     18.6042E-03     4.54201E-03     4.49890E-03
             980               1     18.0772E-03     18.8064E-03     4.42764E-03     4.45069E-03
             981               1     18.5944E-03     19.1253E-03     4.43699E-03     4.35959E-03
             982               1     18.9097E-03     19.6932E-03     4.51434E-03     4.51227E-03
             983               1     20.0509E-03     20.5352E-03     4.74649E-03     4.70714E-03
             984               1     21.6893E-03     22.0725E-03     5.69517E-03     5.51661E-03
             985               1     18.5040E-03     19.2931E-03     878.524E-06     1.00186E-03
             986               1     18.8479E-03     19.6138E-03     2.95664E-03     3.22513E-03
             987               1     19.2105E-03     19.8713E-03     5.16600E-03     5.30723E-03
             988               1     17.7084E-03     18.4369E-03     5.45378E-03     5.53112E-03
             989               1     17.7875E-03     18.4952E-03     5.59460E-03     5.68341E-03
             990               1     17.3598E-03     18.0626E-03     5.62545E-03     5.65170E-03
             991               1     17.4279E-03     18.1344E-03     5.48546E-03     5.52913E-03
             992               1     17.3070E-03     18.0197E-03     5.41150E-03     5.42449E-03
             993               1     17.4030E-03     18.1150E-03     5.23828E-03     5.25388E-03
             994               1     17.3694E-03     18.1072E-03     5.11805E-03     5.13057E-03
             995               1     17.4915E-03     18.2095E-03     4.96284E-03     4.95602E-03
             996               1     17.4725E-03     18.2446E-03     4.81514E-03     4.82958E-03
             997               1     17.6481E-03     18.3575E-03     4.69362E-03     4.65460E-03
             998               1     17.6324E-03     18.4552E-03     4.52312E-03     4.54160E-03
             999               1     17.9669E-03     18.6430E-03     4.45909E-03     4.37128E-03
            1000               1     18.0379E-03     18.9448E-03     4.29209E-03     4.32842E-03
            1001               1     18.8291E-03     19.4446E-03     4.32887E-03     4.20965E-03
            1002               1     19.3549E-03     20.3431E-03     4.32970E-03     4.41250E-03
            1003               1     21.3493E-03     21.9137E-03     4.50122E-03     4.55840E-03
            1004               1     22.5882E-03     23.2045E-03     1.43124E-03     1.72936E-03
            1005               1     22.6068E-03     23.2482E-03     5.62372E-03     5.76392E-03
            1006               1     18.8454E-03     19.6337E-03     5.95612E-03     5.99803E-03
            1007               1     18.2471E-03     19.0541E-03     5.78315E-03     5.87339E-03
            1008               1     17.5135E-03     18.3262E-03     5.90812E-03     5.92546E-03
            1009               1     17.3187E-03     18.1613E-03     5.66742E-03     5.71572E-03
            1010               1     17.1723E-03     18.0151E-03     5.66340E-03     5.67084E-03
            1011               1     17.1613E-03     18.0234E-03     5.44956E-03     5.46964E-03
            1012               1     17.1508E-03     18.0266E-03     5.36706E-03     5.37302E-03
            1013               1     17.2103E-03     18.0878E-03     5.18291E-03     5.18421E-03
            1014               1     17.2196E-03     18.1259E-03     5.05503E-03     5.06234E-03
            1015               1     17.3260E-03     18.2036E-03     4.90563E-03     4.88517E-03
            1016               1     17.3305E-03     18.2637E-03     4.74586E-03     4.75499E-03
            1017               1     17.5321E-03     18.3788E-03     4.64563E-03     4.58778E-03
            1018               1     17.5614E-03     18.5308E-03     4.45222E-03     4.47268E-03
            1019               1     18.0244E-03     18.8034E-03     4.42840E-03     4.31694E-03
            1020               1     18.1959E-03     19.2648E-03     4.18037E-03     4.26210E-03
            1021               1     19.3789E-03     20.1011E-03     4.25235E-03     4.12697E-03
            1022               1     20.0727E-03     21.3800E-03     3.95650E-03     4.23981E-03
            1023               1     29.1003E-03     29.9841E-03     5.35499E-03     5.51833E-03
            1024               1     21.3621E-03     22.1986E-03     6.91445E-03     6.85907E-03
            1025               1     18.8619E-03     19.7850E-03     5.74302E-03     5.81289E-03
            1026               1     17.9543E-03     18.8710E-03     6.11702E-03     6.10646E-03
            1027               1     17.2583E-03     18.2219E-03     5.71884E-03     5.75148E-03
            1028               1     17.1265E-03     18.0984E-03     5.83892E-03     5.83747E-03
            1029               1     16.9383E-03     17.9394E-03     5.59670E-03     5.61064E-03
            1030               1     16.9682E-03     17.9835E-03     5.58052E-03     5.58102E-03
            1031               1     16.9438E-03     17.9753E-03     5.38101E-03     5.38492E-03
            1032               1     16.9937E-03     18.0441E-03     5.28885E-03     5.29072E-03
            1033               1     17.0367E-03     18.0861E-03     5.11772E-03     5.11379E-03
            1034               1     17.0813E-03     18.1554E-03     4.98553E-03     4.98852E-03
            1035               1     17.1948E-03     18.2343E-03     4.85363E-03     4.83727E-03
            1036               1     17.2607E-03     18.3397E-03     4.69900E-03     4.70505E-03
            1037               1     17.5313E-03     18.5098E-03     4.63098E-03     4.59120E-03
            1038               1     17.6966E-03     18.7722E-03     4.44533E-03     4.46995E-03
            1039               1     18.3512E-03     19.2177E-03     4.47866E-03     4.40191E-03
            1040               1     18.7617E-03     19.9384E-03     4.16219E-03     4.27254E-03
            1041               1     20.4135E-03     21.2889E-03     4.35579E-03     4.25300E-03
            1042               1     17.1338E-03     15.3998E-03    -3.46312E-03    -4.66751E-03
            1043               1     18.0079E-03     17.1858E-03    -2.81708E-03    -3.16548E-03
            1044               1     19.5389E-03     19.1535E-03    -1.16717E-03    -1.30787E-03
            1045               1     20.8581E-03     20.7130E-03    -227.740E-06    -305.119E-06
            1046               1     22.1597E-03     22.1588E-03     963.083E-06     930.035E-06
            1047               1     23.1846E-03     23.2368E-03     1.69898E-03     1.68467E-03
            1048               1     24.1891E-03     24.2709E-03     2.60746E-03     2.60544E-03
            1049               1     24.9303E-03     25.0047E-03     3.17565E-03     3.18064E-03
            1050               1     25.6998E-03     25.7631E-03     3.88676E-03     3.89654E-03
            1051               1     26.2548E-03     26.2870E-03     4.36247E-03     4.37550E-03
            1052               1     26.8636E-03     26.8662E-03     4.96063E-03     4.97842E-03
            1053               1     27.3173E-03     27.2722E-03     5.42482E-03     5.44463E-03
            1054               1     27.8248E-03     27.7333E-03     5.99897E-03     6.02956E-03
            1055               1     28.2289E-03     28.0654E-03     6.53080E-03     6.56002E-03
            1056               1     28.6694E-03     28.4364E-03     7.17005E-03     7.22418E-03
            1057               1     29.0385E-03     28.6960E-03     7.84416E-03     7.88735E-03
            1058               1     29.4118E-03     28.9742E-03     8.63365E-03     8.72601E-03
            1059               1     29.7096E-03     29.1164E-03     9.51315E-03     9.57390E-03
            1060               1     29.9390E-03     29.2524E-03     10.5298E-03     10.6751E-03
            1061               1     15.1828E-03     17.6811E-03    -2.10722E-03    -2.53999E-03
            1062               1     19.6072E-03     19.7119E-03    -969.838E-06    -1.69176E-03
            1063               1     20.9649E-03     20.9523E-03    -181.636E-06    -511.177E-06
            1064               1     22.5627E-03     22.5826E-03     864.566E-06     691.995E-06
            1065               1     23.5543E-03     23.6345E-03     1.55408E-03     1.46148E-03
            1066               1     24.5941E-03     24.7154E-03     2.42508E-03     2.38976E-03
            1067               1     25.2633E-03     25.4103E-03     2.95819E-03     2.94932E-03
            1068               1     26.0277E-03     26.1805E-03     3.64295E-03     3.65619E-03
            1069               1     26.5035E-03     26.6547E-03     4.06826E-03     4.09191E-03
            1070               1     27.1110E-03     27.2489E-03     4.61772E-03     4.65343E-03
            1071               1     27.5019E-03     27.6258E-03     5.00256E-03     5.04520E-03
            1072               1     28.0196E-03     28.1198E-03     5.48862E-03     5.54807E-03
            1073               1     28.3862E-03     28.4657E-03     5.90234E-03     5.96488E-03
            1074               1     28.8416E-03     28.8957E-03     6.39804E-03     6.49949E-03
            1075               1     29.2005E-03     29.2236E-03     6.91310E-03     7.00032E-03
            1076               1     29.5679E-03     29.5879E-03     7.49002E-03     7.65973E-03
            1077               1     29.8807E-03     29.8530E-03     8.18068E-03     8.29137E-03
            1078               1     30.0391E-03     30.0893E-03     8.90868E-03     9.15888E-03
            1079               1     30.1996E-03     30.1948E-03     9.87777E-03     9.96142E-03
            1080               1     17.6734E-03     18.0742E-03    -1.55863E-03    -1.35267E-03
            1081               1     19.9501E-03     21.2604E-03     62.7928E-06    -58.0916E-06
            1082               1     22.4973E-03     22.9189E-03     1.03717E-03     693.605E-06
            1083               1     23.7557E-03     24.0674E-03     1.73378E-03     1.56811E-03
            1084               1     24.9851E-03     25.2293E-03     2.54022E-03     2.43474E-03
            1085               1     25.6505E-03     25.9019E-03     3.02798E-03     2.98256E-03
            1086               1     26.4329E-03     26.6772E-03     3.66263E-03     3.65615E-03
            1087               1     26.8169E-03     27.0736E-03     4.01522E-03     4.02962E-03
            1088               1     27.4006E-03     27.6502E-03     4.49411E-03     4.52854E-03
            1089               1     27.6896E-03     27.9469E-03     4.78318E-03     4.82806E-03
            1090               1     28.1815E-03     28.4258E-03     5.17006E-03     5.23066E-03
            1091               1     28.4629E-03     28.7208E-03     5.45900E-03     5.52751E-03
            1092               1     28.9091E-03     29.1507E-03     5.82033E-03     5.91744E-03
            1093               1     29.2109E-03     29.4803E-03     6.17488E-03     6.26714E-03
            1094               1     29.6030E-03     29.8694E-03     6.57615E-03     6.73122E-03
            1095               1     29.9103E-03     30.2164E-03     7.07949E-03     7.18669E-03
            1096               1     30.1603E-03     30.5162E-03     7.60461E-03     7.81697E-03
            1097               1     30.4051E-03     30.8001E-03     8.37574E-03     8.44789E-03
            1098               1     30.3488E-03     30.8413E-03     9.17935E-03     9.30848E-03
            1099               1     19.1924E-03     20.4008E-03    -888.169E-06    -1.03609E-03
            1100               1     21.5099E-03     22.2048E-03     718.254E-06     722.651E-06
            1101               1     23.4111E-03     24.3414E-03     1.83468E-03     1.81412E-03
            1102               1     25.0543E-03     25.5643E-03     2.75494E-03     2.61404E-03
            1103               1     25.9082E-03     26.3800E-03     3.28489E-03     3.23555E-03
            1104               1     26.7943E-03     27.1728E-03     3.91483E-03     3.88292E-03
            1105               1     27.1238E-03     27.5062E-03     4.20858E-03     4.21036E-03
            1106               1     27.6986E-03     28.0560E-03     4.62182E-03     4.64557E-03
            1107               1     27.8718E-03     28.2438E-03     4.81213E-03     4.84841E-03
            1108               1     28.3223E-03     28.6826E-03     5.09566E-03     5.14584E-03
            1109               1     28.4923E-03     28.8813E-03     5.26114E-03     5.32096E-03
            1110               1     28.9008E-03     29.2752E-03     5.49270E-03     5.56734E-03
            1111               1     29.1106E-03     29.5427E-03     5.69152E-03     5.77113E-03
            1112               1     29.5026E-03     29.9156E-03     5.93173E-03     6.04376E-03
            1113               1     29.7601E-03     30.2678E-03     6.24321E-03     6.33009E-03
            1114               1     30.1007E-03     30.6033E-03     6.57133E-03     6.72451E-03
            1115               1     30.3988E-03     31.0008E-03     7.12891E-03     7.17621E-03
            1116               1     30.5945E-03     31.2235E-03     7.70377E-03     7.81366E-03
            1117               1     31.0034E-03     31.5919E-03     8.75824E-03     8.64551E-03
            1118               1     21.1435E-03     22.1690E-03    -444.718E-06    -269.617E-06
            1119               1     22.9612E-03     24.0364E-03     1.25426E-03     1.29464E-03
            1120               1     24.7284E-03     25.4651E-03     2.64601E-03     2.65491E-03
            1121               1     25.9317E-03     26.7545E-03     3.45533E-03     3.49467E-03
            1122               1     27.0140E-03     27.5772E-03     4.25098E-03     4.23168E-03
            1123               1     27.3574E-03     27.9200E-03     4.56218E-03     4.57720E-03
            1124               1     27.9639E-03     28.4439E-03     4.96442E-03     4.98526E-03
            1125               1     28.0212E-03     28.5111E-03     5.07569E-03     5.10608E-03
            1126               1     28.4344E-03     28.8997E-03     5.26606E-03     5.30636E-03
            1127               1     28.4828E-03     28.9769E-03     5.31969E-03     5.36674E-03
            1128               1     28.8365E-03     29.3150E-03     5.42841E-03     5.47962E-03
            1129               1     28.9383E-03     29.4797E-03     5.48712E-03     5.54855E-03
            1130               1     29.2920E-03     29.8053E-03     5.58260E-03     5.64801E-03
            1131               1     29.4582E-03     30.0891E-03     5.70640E-03     5.77368E-03
            1132               1     29.8344E-03     30.4140E-03     5.85034E-03     5.93529E-03
            1133               1     30.0966E-03     30.8376E-03     6.16220E-03     6.19923E-03
            1134               1     30.4702E-03     31.1530E-03     6.48599E-03     6.56191E-03
            1135               1     30.9244E-03     31.6695E-03     7.20761E-03     7.13840E-03
            1136               1     31.3686E-03     32.0512E-03     8.00267E-03     7.92920E-03
            1137               1     23.2175E-03     24.1626E-03     117.381E-06     228.575E-06
            1138               1     24.6112E-03     25.5589E-03     1.95984E-03     2.07039E-03
            1139               1     25.9688E-03     26.9935E-03     3.22451E-03     3.34668E-03
            1140               1     27.1705E-03     27.9009E-03     4.44603E-03     4.51241E-03
            1141               1     27.5390E-03     28.3274E-03     4.91498E-03     4.98892E-03
            1142               1     28.2095E-03     28.8255E-03     5.43405E-03     5.48171E-03
            1143               1     28.1276E-03     28.7533E-03     5.51240E-03     5.55507E-03
            1144               1     28.5149E-03     29.0855E-03     5.64044E-03     5.68263E-03
            1145               1     28.4347E-03     29.0265E-03     5.60606E-03     5.64538E-03
            1146               1     28.7291E-03     29.3003E-03     5.60265E-03     5.63959E-03
            1147               1     28.7237E-03     29.3465E-03     5.54820E-03     5.59212E-03
            1148               1     29.0122E-03     29.6075E-03     5.51569E-03     5.54671E-03
            1149               1     29.0780E-03     29.7804E-03     5.48478E-03     5.53152E-03
            1150               1     29.4157E-03     30.0542E-03     5.47295E-03     5.49860E-03
            1151               1     29.5726E-03     30.3950E-03     5.54341E-03     5.57508E-03
            1152               1     30.0171E-03     30.7167E-03     5.62771E-03     5.64867E-03
            1153               1     30.4025E-03     31.2891E-03     6.00483E-03     5.96353E-03
            1154               1     30.9807E-03     31.7505E-03     6.39843E-03     6.39642E-03
            1155               1     31.8711E-03     32.4926E-03     7.34679E-03     7.20354E-03
            1156               1     25.0577E-03     26.2060E-03     780.322E-06     871.035E-06
            1157               1     26.4971E-03     27.5854E-03     2.52934E-03     2.73161E-03
            1158               1     27.6186E-03     28.4806E-03     4.33624E-03     4.48521E-03
            1159               1     27.8928E-03     28.8616E-03     5.11488E-03     5.25624E-03
            1160               1     28.5872E-03     29.3271E-03     5.94018E-03     6.05792E-03
            1161               1     28.2415E-03     29.0089E-03     6.04394E-03     6.12163E-03
            1162               1     28.5936E-03     29.2688E-03     6.15276E-03     6.21818E-03
            1163               1     28.3580E-03     29.0490E-03     6.06445E-03     6.10768E-03
            1164               1     28.5893E-03     29.2507E-03     5.96189E-03     5.99843E-03
            1165               1     28.4840E-03     29.1808E-03     5.82714E-03     5.85990E-03
            1166               1     28.6980E-03     29.3712E-03     5.68214E-03     5.69631E-03
            1167               1     28.6784E-03     29.4301E-03     5.54307E-03     5.57219E-03
            1168               1     28.9338E-03     29.6306E-03     5.40824E-03     5.39627E-03
            1169               1     28.9842E-03     29.8373E-03     5.29847E-03     5.32074E-03
            1170               1     29.3668E-03     30.0922E-03     5.21099E-03     5.17038E-03
            1171               1     29.5639E-03     30.5399E-03     5.23821E-03     5.23545E-03
            1172               1     30.2244E-03     30.9735E-03     5.28852E-03     5.24794E-03
            1173               1     30.9233E-03     31.8296E-03     5.77957E-03     5.69175E-03
            1174               1     31.8306E-03     32.6872E-03     6.27820E-03     6.31099E-03
            1175               1     27.6148E-03     28.6757E-03     1.32932E-03     1.65330E-03
            1176               1     28.6800E-03     29.6083E-03     3.82076E-03     3.97423E-03
            1177               1     28.8525E-03     29.9663E-03     5.09359E-03     5.30917E-03
            1178               1     29.4710E-03     30.3032E-03     6.48711E-03     6.69737E-03
            1179               1     28.5146E-03     29.3871E-03     6.63940E-03     6.76039E-03
            1180               1     28.7590E-03     29.5237E-03     6.74259E-03     6.85234E-03
            1181               1     28.2927E-03     29.0769E-03     6.63523E-03     6.69295E-03
            1182               1     28.4343E-03     29.1837E-03     6.43781E-03     6.48766E-03
            1183               1     28.2327E-03     29.0057E-03     6.25830E-03     6.28797E-03
            1184               1     28.3669E-03     29.1221E-03     6.01194E-03     6.02547E-03
            1185               1     28.2873E-03     29.0908E-03     5.81067E-03     5.82833E-03
            1186               1     28.4516E-03     29.2166E-03     5.57702E-03     5.55424E-03
            1187               1     28.4325E-03     29.3002E-03     5.36677E-03     5.37621E-03
            1188               1     28.6900E-03     29.4603E-03     5.16456E-03     5.09435E-03
            1189               1     28.7426E-03     29.7166E-03     4.97208E-03     4.97621E-03
            1190               1     29.2536E-03     30.0176E-03     4.82843E-03     4.71876E-03
            1191               1     29.5456E-03     30.6328E-03     4.78609E-03     4.78853E-03
            1192               1     30.6219E-03     31.3782E-03     4.76984E-03     4.74188E-03
            1193               1     31.9060E-03     32.7040E-03     5.46605E-03     5.37502E-03
            1194               1     30.2787E-03     31.2190E-03     2.53394E-03     2.54603E-03
            1195               1     30.9665E-03     32.2795E-03     4.71255E-03     5.02375E-03
            1196               1     31.5151E-03     32.3813E-03     7.23094E-03     7.55776E-03
            1197               1     29.2049E-03     30.1124E-03     7.39423E-03     7.55382E-03
            1198               1     29.1466E-03     29.9677E-03     7.38197E-03     7.54241E-03
            1199               1     28.3239E-03     29.1717E-03     7.28341E-03     7.35383E-03
            1200               1     28.2929E-03     29.1202E-03     6.96164E-03     7.03154E-03
            1201               1     27.9929E-03     28.8414E-03     6.77454E-03     6.80522E-03
            1202               1     28.0260E-03     28.8678E-03     6.43064E-03     6.45263E-03
            1203               1     27.9125E-03     28.7827E-03     6.20647E-03     6.21929E-03
            1204               1     27.9899E-03     28.8389E-03     5.89044E-03     5.87540E-03
            1205               1     27.9429E-03     28.8458E-03     5.64103E-03     5.64305E-03
            1206               1     28.0812E-03     28.9199E-03     5.35925E-03     5.29601E-03
            1207               1     28.0693E-03     29.0240E-03     5.08034E-03     5.07713E-03
            1208               1     28.3661E-03     29.1727E-03     4.83759E-03     4.70976E-03
            1209               1     28.4377E-03     29.4906E-03     4.53233E-03     4.54978E-03
            1210               1     29.1695E-03     29.9311E-03     4.33823E-03     4.17726E-03
            1211               1     29.5765E-03     30.7690E-03     4.12253E-03     4.22030E-03
            1212               1     31.4105E-03     32.1773E-03     3.95573E-03     4.03343E-03
            1213               1     34.5476E-03     36.2714E-03     3.37901E-03     3.89200E-03
            1214               1     35.8861E-03     36.6269E-03     8.36416E-03     8.86707E-03
            1215               1     30.7024E-03     31.5268E-03     8.56986E-03     8.75123E-03
            1216               1     29.8408E-03     30.6515E-03     8.04432E-03     8.23316E-03
            1217               1     28.5757E-03     29.4375E-03     8.00117E-03     8.06750E-03
            1218               1     28.1917E-03     29.0752E-03     7.46898E-03     7.54852E-03
            1219               1     27.8077E-03     28.7209E-03     7.31664E-03     7.34358E-03
            1220               1     27.6833E-03     28.6110E-03     6.87041E-03     6.89899E-03
            1221               1     27.5625E-03     28.5127E-03     6.65807E-03     6.66816E-03
            1222               1     27.5466E-03     28.4943E-03     6.27193E-03     6.27022E-03
            1223               1     27.5046E-03     28.4776E-03     6.02176E-03     6.02241E-03
            1224               1     27.5476E-03     28.4856E-03     5.67914E-03     5.64426E-03
            1225               1     27.5296E-03     28.5123E-03     5.39170E-03     5.38535E-03
            1226               1     27.6615E-03     28.5501E-03     5.08586E-03     4.99948E-03
            1227               1     27.6751E-03     28.6697E-03     4.73919E-03     4.73935E-03
            1228               1     28.0410E-03     28.8419E-03     4.47165E-03     4.31628E-03
            1229               1     28.1624E-03     29.2312E-03     4.01003E-03     4.07751E-03
            1230               1     29.1862E-03     29.9208E-03     3.77235E-03     3.59210E-03
            1231               1     29.6877E-03     30.9974E-03     3.15035E-03     3.44705E-03
            1232               1     44.2060E-03     44.0298E-03     8.66808E-03     9.43916E-03
            1233               1     34.0295E-03     34.4684E-03     10.5732E-03     10.6583E-03
            1234               1     30.6370E-03     31.3372E-03     8.52899E-03     8.68057E-03
            1235               1     29.1913E-03     30.0037E-03     8.72863E-03     8.74739E-03
            1236               1     28.1189E-03     29.0300E-03     7.87452E-03     7.93019E-03
            1237               1     27.7354E-03     28.6995E-03     7.81950E-03     7.82771E-03
            1238               1     27.3539E-03     28.3614E-03     7.27153E-03     7.29199E-03
            1239               1     27.2587E-03     28.2962E-03     7.10410E-03     7.10772E-03
            1240               1     27.1211E-03     28.1746E-03     6.66337E-03     6.66780E-03
            1241               1     27.1059E-03     28.1776E-03     6.43464E-03     6.43540E-03
            1242               1     27.0640E-03     28.1258E-03     6.04600E-03     6.03843E-03
            1243               1     27.0673E-03     28.1407E-03     5.77749E-03     5.77576E-03
            1244               1     27.0918E-03     28.1128E-03     5.42316E-03     5.39804E-03
            1245               1     27.1157E-03     28.1505E-03     5.11365E-03     5.11199E-03
            1246               1     27.2635E-03     28.1709E-03     4.78952E-03     4.73429E-03
            1247               1     27.3585E-03     28.3211E-03     4.40110E-03     4.41722E-03
            1248               1     27.8147E-03     28.5364E-03     4.11355E-03     4.01211E-03
            1249               1     28.0966E-03     29.0528E-03     3.50195E-03     3.60684E-03
            1250               1     29.3999E-03     30.0310E-03     3.27930E-03     3.13811E-03
            1251               1     30.2527E-03     28.5980E-03    -5.31336E-03    -6.60277E-03
            1252               1     28.6194E-03     28.1897E-03    -4.76206E-03    -5.08972E-03
            1253               1     29.6273E-03     29.6683E-03    -2.21622E-03    -2.38802E-03
            1254               1     30.5132E-03     30.8318E-03    -1.09741E-03    -1.16658E-03
            1255               1     31.6582E-03     32.1142E-03     569.866E-06     525.362E-06
            1256               1     32.4971E-03     33.0204E-03     1.47726E-03     1.46747E-03
            1257               1     33.4225E-03     33.9633E-03     2.71000E-03     2.70626E-03
            1258               1     34.0323E-03     34.5640E-03     3.42369E-03     3.43282E-03
            1259               1     34.7305E-03     35.2357E-03     4.37431E-03     4.38731E-03
            1260               1     35.1594E-03     35.6228E-03     4.97181E-03     4.98947E-03
            1261               1     35.6855E-03     36.0998E-03     5.75270E-03     5.77737E-03
            1262               1     36.0083E-03     36.3578E-03     6.32148E-03     6.34687E-03
            1263               1     36.4228E-03     36.6987E-03     7.03748E-03     7.08010E-03
            1264               1     36.6979E-03     36.8776E-03     7.66454E-03     7.70007E-03
            1265               1     37.0507E-03     37.1210E-03     8.41302E-03     8.48787E-03
            1266               1     37.3157E-03     37.2431E-03     9.18644E-03     9.23227E-03
            1267               1     37.6399E-03     37.4185E-03     10.0536E-03     10.1802E-03
            1268               1     37.9171E-03     37.4964E-03     11.0753E-03     11.1154E-03
            1269               1     38.2073E-03     37.6446E-03     12.1277E-03     12.3215E-03
            1270               1     26.6265E-03     29.4098E-03    -2.21898E-03    -2.77011E-03
            1271               1     31.5074E-03     31.9172E-03    -2.10142E-03    -2.89800E-03
            1272               1     31.4085E-03     31.7942E-03    -1.13268E-03    -1.46852E-03
            1273               1     32.8739E-03     33.2660E-03     305.146E-06     95.5680E-06
            1274               1     33.4152E-03     33.9060E-03     1.15999E-03     1.07119E-03
            1275               1     34.3642E-03     34.8750E-03     2.35888E-03     2.31254E-03
            1276               1     34.7947E-03     35.3460E-03     3.03422E-03     3.03321E-03
            1277               1     35.4770E-03     36.0189E-03     3.96714E-03     3.98450E-03
            1278               1     35.7680E-03     36.3089E-03     4.51229E-03     4.54669E-03
            1279               1     36.2844E-03     36.7991E-03     5.24968E-03     5.29888E-03
            1280               1     36.5056E-03     36.9993E-03     5.73790E-03     5.79392E-03
            1281               1     36.9212E-03     37.3775E-03     6.36850E-03     6.45137E-03
            1282               1     37.1260E-03     37.5505E-03     6.87671E-03     6.95575E-03
            1283               1     37.4797E-03     37.8618E-03     7.48414E-03     7.62419E-03
            1284               1     37.6932E-03     38.0307E-03     8.09458E-03     8.19873E-03
            1285               1     37.9926E-03     38.3043E-03     8.75445E-03     8.98339E-03
            1286               1     38.2063E-03     38.4552E-03     9.55829E-03     9.66960E-03
            1287               1     38.4191E-03     38.7116E-03     10.3425E-03     10.6632E-03
            1288               1     38.5800E-03     38.8017E-03     11.4601E-03     11.4786E-03
            1289               1     28.4808E-03     29.2948E-03    -1.42794E-03    -1.27555E-03
            1290               1     31.3091E-03     32.9422E-03     55.5196E-06    -152.969E-06
            1291               1     33.7515E-03     34.4752E-03     606.721E-06     199.354E-06
            1292               1     34.2740E-03     34.9497E-03     1.43541E-03     1.25461E-03
            1293               1     35.4003E-03     35.9665E-03     2.43793E-03     2.30504E-03
            1294               1     35.6813E-03     36.2896E-03     3.05296E-03     3.01143E-03
            1295               1     36.3700E-03     36.9452E-03     3.90666E-03     3.89842E-03
            1296               1     36.4906E-03     37.0918E-03     4.36760E-03     4.39401E-03
            1297               1     36.9751E-03     37.5552E-03     5.02318E-03     5.07054E-03
            1298               1     37.0457E-03     37.6367E-03     5.40524E-03     5.46643E-03
            1299               1     37.4284E-03     37.9976E-03     5.92891E-03     6.01367E-03
            1300               1     37.5132E-03     38.0962E-03     6.30203E-03     6.39055E-03
            1301               1     37.8468E-03     38.4053E-03     6.77010E-03     6.90573E-03
            1302               1     37.9672E-03     38.5572E-03     7.20540E-03     7.32113E-03
            1303               1     38.2669E-03     38.8399E-03     7.68809E-03     7.90101E-03
            1304               1     38.4148E-03     39.0427E-03     8.26964E-03     8.39729E-03
            1305               1     38.6534E-03     39.2931E-03     8.84963E-03     9.13147E-03
            1306               1     38.7767E-03     39.4950E-03     9.66895E-03     9.73957E-03
            1307               1     38.9149E-03     39.6155E-03     10.5023E-03     10.6409E-03
            1308               1     30.0603E-03     31.5298E-03    -432.110E-06    -665.761E-06
            1309               1     32.6681E-03     33.6773E-03     972.238E-06     909.284E-06
            1310               1     34.5830E-03     35.8320E-03     2.05438E-03     1.97890E-03
            1311               1     36.0786E-03     36.8610E-03     2.83313E-03     2.64889E-03
            1312               1     36.4856E-03     37.2776E-03     3.45022E-03     3.39106E-03
            1313               1     37.2527E-03     37.9076E-03     4.19987E-03     4.15804E-03
            1314               1     37.2381E-03     37.9230E-03     4.57874E-03     4.58913E-03
            1315               1     37.7011E-03     38.3383E-03     5.12929E-03     5.16226E-03
            1316               1     37.5995E-03     38.2630E-03     5.39271E-03     5.44488E-03
            1317               1     37.9331E-03     38.5752E-03     5.78867E-03     5.85924E-03
            1318               1     37.8689E-03     38.5473E-03     6.01982E-03     6.09898E-03
            1319               1     38.1554E-03     38.8143E-03     6.34054E-03     6.44644E-03
            1320               1     38.1540E-03     38.8836E-03     6.60055E-03     6.70291E-03
            1321               1     38.4315E-03     39.1339E-03     6.91032E-03     7.06786E-03
            1322               1     38.4911E-03     39.3175E-03     7.27271E-03     7.38602E-03
            1323               1     38.7559E-03     39.5484E-03     7.64590E-03     7.85676E-03
            1324               1     38.8646E-03     39.8160E-03     8.20925E-03     8.28521E-03
            1325               1     39.0663E-03     39.9572E-03     8.78362E-03     8.92858E-03
            1326               1     39.2533E-03     40.1846E-03     9.64689E-03     9.58549E-03
            1327               1     31.8394E-03     33.2556E-03     200.532E-06     297.483E-06
            1328               1     34.1464E-03     35.5157E-03     1.86222E-03     1.84459E-03
            1329               1     35.9492E-03     36.9458E-03     3.14125E-03     3.09886E-03
            1330               1     37.0075E-03     38.1255E-03     3.95975E-03     3.97091E-03
            1331               1     37.9403E-03     38.7385E-03     4.73112E-03     4.69712E-03
            1332               1     37.9172E-03     38.7477E-03     5.08947E-03     5.10631E-03
            1333               1     38.3894E-03     39.1010E-03     5.55698E-03     5.58472E-03
            1334               1     38.1181E-03     38.8566E-03     5.71108E-03     5.75527E-03
            1335               1     38.4030E-03     39.1018E-03     5.96825E-03     6.02498E-03
            1336               1     38.1776E-03     38.9166E-03     6.06087E-03     6.12486E-03
            1337               1     38.4001E-03     39.1187E-03     6.22527E-03     6.29960E-03
            1338               1     38.2643E-03     39.0607E-03     6.32065E-03     6.40037E-03
            1339               1     38.4868E-03     39.2518E-03     6.46083E-03     6.55724E-03
            1340               1     38.4324E-03     39.3450E-03     6.61263E-03     6.70108E-03
            1341               1     38.6882E-03     39.5350E-03     6.78448E-03     6.90910E-03
            1342               1     38.7263E-03     39.7934E-03     7.08550E-03     7.15253E-03
            1343               1     38.9977E-03     39.9570E-03     7.39398E-03     7.50852E-03
            1344               1     39.1929E-03     40.2950E-03     7.97672E-03     7.96158E-03
            1345               1     39.4038E-03     40.3860E-03     8.62197E-03     8.55547E-03
            1346               1     34.0714E-03     35.2956E-03     931.764E-06     1.01303E-03
            1347               1     35.7465E-03     36.9730E-03     2.78897E-03     2.83269E-03
            1348               1     37.2580E-03     38.5782E-03     4.04651E-03     4.14041E-03
            1349               1     38.3922E-03     39.3356E-03     5.25188E-03     5.30617E-03
            1350               1     38.4974E-03     39.5307E-03     5.72363E-03     5.79425E-03
            1351               1     39.0107E-03     39.8190E-03     6.23426E-03     6.29320E-03
            1352               1     38.5681E-03     39.4021E-03     6.31500E-03     6.37027E-03
            1353               1     38.8096E-03     39.5655E-03     6.44466E-03     6.50261E-03
            1354               1     38.4185E-03     39.2078E-03     6.41439E-03     6.46867E-03
            1355               1     38.5705E-03     39.3317E-03     6.41621E-03     6.47054E-03
            1356               1     38.3026E-03     39.1289E-03     6.36794E-03     6.42565E-03
            1357               1     38.4474E-03     39.2445E-03     6.34131E-03     6.39142E-03
            1358               1     38.2776E-03     39.2055E-03     6.31321E-03     6.37284E-03
            1359               1     38.4698E-03     39.3291E-03     6.30173E-03     6.34823E-03
            1360               1     38.3911E-03     39.4818E-03     6.35021E-03     6.39923E-03
            1361               1     38.6785E-03     39.6264E-03     6.40840E-03     6.45113E-03
            1362               1     38.7854E-03     39.9968E-03     6.67863E-03     6.67706E-03
            1363               1     39.1218E-03     40.1761E-03     6.95429E-03     6.97456E-03
            1364               1     39.6135E-03     40.5527E-03     7.63028E-03     7.55500E-03
            1365               1     35.9013E-03     37.3705E-03     1.82253E-03     1.80663E-03
            1366               1     37.7623E-03     39.1815E-03     3.56548E-03     3.76492E-03
            1367               1     39.0056E-03     40.0686E-03     5.46432E-03     5.60451E-03
            1368               1     39.1348E-03     40.3481E-03     6.23692E-03     6.38092E-03
            1369               1     39.6938E-03     40.5992E-03     7.05890E-03     7.20509E-03
            1370               1     38.9730E-03     39.9119E-03     7.11977E-03     7.21437E-03
            1371               1     39.1609E-03     39.9762E-03     7.16063E-03     7.24750E-03
            1372               1     38.5842E-03     39.4253E-03     7.03464E-03     7.09306E-03
            1373               1     38.6581E-03     39.4586E-03     6.87205E-03     6.92432E-03
            1374               1     38.2686E-03     39.1151E-03     6.70753E-03     6.75135E-03
            1375               1     38.3266E-03     39.1476E-03     6.51630E-03     6.54261E-03
            1376               1     38.0595E-03     38.9744E-03     6.35026E-03     6.38598E-03
            1377               1     38.1548E-03     39.0144E-03     6.17590E-03     6.17187E-03
            1378               1     37.9684E-03     39.0144E-03     6.02770E-03     6.05378E-03
            1379               1     38.1716E-03     39.0856E-03     5.89163E-03     5.85334E-03
            1380               1     38.1024E-03     39.3227E-03     5.83290E-03     5.84171E-03
            1381               1     38.5108E-03     39.4966E-03     5.78534E-03     5.74799E-03
            1382               1     38.8267E-03     40.0379E-03     6.07093E-03     6.02947E-03
            1383               1     39.2894E-03     40.4334E-03     6.32744E-03     6.39772E-03
            1384               1     38.6086E-03     40.0690E-03     2.49203E-03     2.88498E-03
            1385               1     40.1475E-03     41.2467E-03     5.19791E-03     5.32650E-03
            1386               1     40.3103E-03     41.7148E-03     6.50442E-03     6.74269E-03
            1387               1     40.8777E-03     41.8602E-03     7.99933E-03     8.27558E-03
            1388               1     39.4668E-03     40.4756E-03     8.06875E-03     8.22361E-03
            1389               1     39.5392E-03     40.4008E-03     8.04938E-03     8.19486E-03
            1390               1     38.7015E-03     39.5879E-03     7.85908E-03     7.93637E-03
            1391               1     38.6670E-03     39.5056E-03     7.52742E-03     7.59565E-03
            1392               1     38.1656E-03     39.0363E-03     7.27871E-03     7.31897E-03
            1393               1     38.1292E-03     38.9791E-03     6.92364E-03     6.94697E-03
            1394               1     37.7937E-03     38.7007E-03     6.66206E-03     6.68362E-03
            1395               1     37.7856E-03     38.6544E-03     6.33934E-03     6.31883E-03
            1396               1     37.5299E-03     38.5154E-03     6.06669E-03     6.07309E-03
            1397               1     37.5989E-03     38.4873E-03     5.78046E-03     5.70166E-03
            1398               1     37.4030E-03     38.5233E-03     5.50227E-03     5.49856E-03
            1399               1     37.6702E-03     38.5842E-03     5.25503E-03     5.12502E-03
            1400               1     37.6412E-03     38.9267E-03     5.06259E-03     5.06661E-03
            1401               1     38.3246E-03     39.2992E-03     4.87282E-03     4.83645E-03
            1402               1     39.0469E-03     40.1325E-03     5.26322E-03     5.23367E-03
            1403               1     41.6273E-03     42.6370E-03     4.05443E-03     3.94614E-03
            1404               1     42.6371E-03     44.4036E-03     6.35692E-03     6.73118E-03
            1405               1     43.3746E-03     44.3768E-03     9.22316E-03     9.69235E-03
            1406               1     40.3436E-03     41.3422E-03     9.26596E-03     9.49593E-03
            1407               1     40.1030E-03     40.9693E-03     9.06596E-03     9.28455E-03
            1408               1     38.8530E-03     39.7501E-03     8.84091E-03     8.94039E-03
            1409               1     38.6211E-03     39.4868E-03     8.30396E-03     8.39780E-03
            1410               1     38.0133E-03     38.9088E-03     8.00820E-03     8.05058E-03
            1411               1     37.8569E-03     38.7435E-03     7.48667E-03     7.51882E-03
            1412               1     37.4865E-03     38.4070E-03     7.16837E-03     7.18475E-03
            1413               1     37.3779E-03     38.2773E-03     6.70844E-03     6.69523E-03
            1414               1     37.0957E-03     38.0527E-03     6.36938E-03     6.36762E-03
            1415               1     37.0371E-03     37.9300E-03     5.96056E-03     5.88827E-03
            1416               1     36.7883E-03     37.8026E-03     5.58151E-03     5.56520E-03
            1417               1     36.8502E-03     37.7183E-03     5.20796E-03     5.05451E-03
            1418               1     36.6472E-03     37.7722E-03     4.76998E-03     4.76532E-03
            1419               1     37.0435E-03     37.8950E-03     4.41325E-03     4.21173E-03
            1420               1     37.0548E-03     38.3621E-03     3.99517E-03     4.07694E-03
            1421               1     38.3138E-03     39.2556E-03     3.58573E-03     3.65117E-03
            1422               1     46.2200E-03     48.8738E-03     5.11868E-03     5.83068E-03
            1423               1     48.6595E-03     49.4410E-03     10.9776E-03     11.7779E-03
            1424               1     42.1019E-03     42.9172E-03     11.0550E-03     11.3626E-03
            1425               1     40.9604E-03     41.7281E-03     10.1716E-03     10.4406E-03
            1426               1     39.1861E-03     40.0279E-03     9.96693E-03     10.0719E-03
            1427               1     38.5478E-03     39.4120E-03     9.11598E-03     9.22328E-03
            1428               1     37.8575E-03     38.7659E-03     8.82000E-03     8.85905E-03
            1429               1     37.5162E-03     38.4417E-03     8.12308E-03     8.16200E-03
            1430               1     37.1505E-03     38.1043E-03     7.78581E-03     7.79939E-03
            1431               1     36.9326E-03     37.8850E-03     7.20046E-03     7.20157E-03
            1432               1     36.6640E-03     37.6413E-03     6.83501E-03     6.83396E-03
            1433               1     36.5004E-03     37.4416E-03     6.32238E-03     6.28304E-03
            1434               1     36.2529E-03     37.2327E-03     5.91589E-03     5.90092E-03
            1435               1     36.1513E-03     37.0334E-03     5.44620E-03     5.34313E-03
            1436               1     35.9106E-03     36.8845E-03     4.96010E-03     4.94119E-03
            1437               1     35.9772E-03     36.7564E-03     4.51090E-03     4.31997E-03
            1438               1     35.7821E-03     36.8021E-03     3.87171E-03     3.90666E-03
            1439               1     36.3590E-03     37.0671E-03     3.40869E-03     3.17404E-03
            1440               1     36.3921E-03     37.6464E-03     2.54533E-03     2.80606E-03
            1441               1     58.8146E-03     57.7626E-03     11.7907E-03     13.0796E-03
            1442               1     46.1380E-03     46.2210E-03     14.0282E-03     14.2329E-03
            1443               1     41.8548E-03     42.3339E-03     11.1317E-03     11.3519E-03
            1444               1     39.8977E-03     40.5792E-03     11.1695E-03     11.2133E-03
            1445               1     38.4251E-03     39.2472E-03     9.84608E-03     9.92177E-03
            1446               1     37.7663E-03     38.6702E-03     9.62215E-03     9.63659E-03
            1447               1     37.1200E-03     38.0810E-03     8.74619E-03     8.77342E-03
            1448               1     36.8109E-03     37.8105E-03     8.42907E-03     8.43427E-03
            1449               1     36.4521E-03     37.4715E-03     7.73739E-03     7.74404E-03
            1450               1     36.2336E-03     37.2709E-03     7.37331E-03     7.37389E-03
            1451               1     35.9759E-03     37.0023E-03     6.77757E-03     6.76956E-03
            1452               1     35.7638E-03     36.7939E-03     6.37528E-03     6.37134E-03
            1453               1     35.5529E-03     36.5235E-03     5.82984E-03     5.80048E-03
            1454               1     35.3314E-03     36.2960E-03     5.37183E-03     5.36435E-03
            1455               1     35.1959E-03     36.0161E-03     4.84487E-03     4.77876E-03
            1456               1     34.9931E-03     35.8259E-03     4.27617E-03     4.28014E-03
            1457               1     35.0724E-03     35.6352E-03     3.74541E-03     3.62331E-03
            1458               1     34.9726E-03     35.6830E-03     2.90961E-03     2.99165E-03
            1459               1     35.7023E-03     36.0542E-03     2.37043E-03     2.19882E-03
            1460               1     41.0749E-03     40.5489E-03    -5.82631E-03    -6.76422E-03
            1461               1     37.6412E-03     38.1609E-03    -4.80445E-03    -5.01231E-03
            1462               1     38.9885E-03     39.8087E-03    -1.60456E-03    -1.70988E-03
            1463               1     39.6636E-03     40.6855E-03     119.048E-06     87.0430E-06
            1464               1     40.7482E-03     41.7869E-03     1.80817E-03     1.79987E-03
            1465               1     41.4152E-03     42.4725E-03     3.16102E-03     3.17624E-03
            1466               1     41.9386E-03     42.9299E-03     4.14012E-03     4.15458E-03
            1467               1     42.3302E-03     43.2933E-03     5.06615E-03     5.08788E-03
            1468               1     42.5168E-03     43.4061E-03     5.68684E-03     5.70595E-03
            1469               1     42.6795E-03     43.5353E-03     6.32205E-03     6.33980E-03
            1470               1     42.7020E-03     43.4874E-03     6.78675E-03     6.80922E-03
            1471               1     42.7188E-03     43.4726E-03     7.28681E-03     7.30366E-03
            1472               1     42.6727E-03     43.3401E-03     7.72430E-03     7.75759E-03
            1473               1     42.6171E-03     43.2434E-03     8.22006E-03     8.24803E-03
            1474               1     42.5765E-03     43.0611E-03     8.73726E-03     8.79799E-03
            1475               1     42.5154E-03     42.9210E-03     9.36275E-03     9.42096E-03
            1476               1     42.5510E-03     42.7097E-03     10.0612E-03     10.1799E-03
            1477               1     42.5586E-03     42.5719E-03     11.0103E-03     11.0862E-03
            1478               1     42.7076E-03     42.3957E-03     11.9553E-03     12.1647E-03
            1479               1     37.3570E-03     39.8205E-03    -683.600E-06    -1.30056E-03
            1480               1     42.7684E-03     43.5506E-03    -1.66270E-03    -2.16453E-03
            1481               1     41.3710E-03     42.2771E-03     65.3361E-06    -183.430E-06
            1482               1     42.8718E-03     43.7896E-03     1.47718E-03     1.40007E-03
            1483               1     42.9016E-03     43.8524E-03     2.89836E-03     2.88667E-03
            1484               1     43.3149E-03     44.2659E-03     3.82553E-03     3.84635E-03
            1485               1     43.4419E-03     44.3884E-03     4.76955E-03     4.82113E-03
            1486               1     43.4353E-03     44.3457E-03     5.35172E-03     5.39740E-03
            1487               1     43.4872E-03     44.3780E-03     5.95923E-03     6.01054E-03
            1488               1     43.3700E-03     44.2213E-03     6.36804E-03     6.42247E-03
            1489               1     43.3493E-03     44.1714E-03     6.81088E-03     6.85310E-03
            1490               1     43.2109E-03     44.0000E-03     7.15016E-03     7.22222E-03
            1491               1     43.1533E-03     43.9061E-03     7.54440E-03     7.59277E-03
            1492               1     43.0344E-03     43.7613E-03     7.89584E-03     8.01142E-03
            1493               1     42.9730E-03     43.6625E-03     8.33517E-03     8.42724E-03
            1494               1     42.9266E-03     43.5888E-03     8.79134E-03     8.99175E-03
            1495               1     42.8570E-03     43.5207E-03     9.39758E-03     9.56820E-03
            1496               1     42.9633E-03     43.5583E-03     10.0664E-03     10.3793E-03
            1497               1     42.8269E-03     43.5398E-03     11.0663E-03     11.1870E-03
            1498               1     38.9761E-03     40.1968E-03     132.088E-06     331.516E-06
            1499               1     42.6267E-03     44.2681E-03     2.19842E-03     1.84680E-03
            1500               1     45.0236E-03     46.0898E-03     2.02262E-03     1.85374E-03
            1501               1     44.7114E-03     45.6544E-03     3.65010E-03     3.55372E-03
            1502               1     45.0777E-03     46.0185E-03     4.18405E-03     4.18070E-03
            1503               1     44.9043E-03     45.8064E-03     5.15546E-03     5.20437E-03
            1504               1     44.6298E-03     45.5243E-03     5.52242E-03     5.57396E-03
            1505               1     44.4966E-03     45.3830E-03     6.02805E-03     6.09931E-03
            1506               1     44.1747E-03     45.0463E-03     6.29529E-03     6.36275E-03
            1507               1     44.0419E-03     44.8992E-03     6.61516E-03     6.67696E-03
            1508               1     43.7632E-03     44.6132E-03     6.82849E-03     6.91147E-03
            1509               1     43.6348E-03     44.4603E-03     7.08832E-03     7.14264E-03
            1510               1     43.4026E-03     44.2452E-03     7.28440E-03     7.39954E-03
            1511               1     43.2922E-03     44.1114E-03     7.54726E-03     7.61792E-03
            1512               1     43.1198E-03     43.9995E-03     7.78144E-03     7.95603E-03
            1513               1     43.0239E-03     43.9258E-03     8.10105E-03     8.23383E-03
            1514               1     42.9965E-03     43.9631E-03     8.49397E-03     8.72945E-03
            1515               1     42.8204E-03     43.9995E-03     8.97316E-03     9.17942E-03
            1516               1     43.1234E-03     44.0661E-03     9.74324E-03     9.84422E-03
            1517               1     40.9809E-03     42.6446E-03     1.84487E-03     1.38063E-03
            1518               1     44.4379E-03     45.8582E-03     3.07811E-03     3.22887E-03
            1519               1     46.3830E-03     47.5859E-03     5.21342E-03     5.11135E-03
            1520               1     46.7262E-03     47.8066E-03     5.17875E-03     5.18122E-03
            1521               1     46.6116E-03     47.5161E-03     6.33382E-03     6.38663E-03
            1522               1     45.8995E-03     46.7860E-03     6.29960E-03     6.34926E-03
            1523               1     45.6259E-03     46.4865E-03     6.66057E-03     6.73923E-03
            1524               1     45.0370E-03     45.8992E-03     6.67938E-03     6.74521E-03
            1525               1     44.7716E-03     45.6320E-03     6.81428E-03     6.88656E-03
            1526               1     44.3276E-03     45.1960E-03     6.85552E-03     6.93515E-03
            1527               1     44.0935E-03     44.9511E-03     6.94471E-03     7.00278E-03
            1528               1     43.7362E-03     44.6222E-03     6.98492E-03     7.08472E-03
            1529               1     43.5382E-03     44.4055E-03     7.07651E-03     7.12355E-03
            1530               1     43.2342E-03     44.1784E-03     7.11782E-03     7.24726E-03
            1531               1     43.0765E-03     44.0198E-03     7.22409E-03     7.27787E-03
            1532               1     42.8430E-03     43.9319E-03     7.32210E-03     7.47594E-03
            1533               1     42.7176E-03     43.9003E-03     7.44986E-03     7.55945E-03
            1534               1     42.7372E-03     43.9643E-03     7.82404E-03     7.88224E-03
            1535               1     42.5431E-03     44.1014E-03     8.05383E-03     8.27243E-03
            1536               1     43.7696E-03     45.5447E-03     2.45879E-03     2.90559E-03
            1537               1     46.9175E-03     48.1148E-03     5.64180E-03     5.49907E-03
            1538               1     47.7143E-03     49.1078E-03     6.39176E-03     6.56871E-03
            1539               1     48.5472E-03     49.5363E-03     8.15343E-03     8.29089E-03
            1540               1     46.9857E-03     47.8997E-03     7.68127E-03     7.76296E-03
            1541               1     46.7616E-03     47.5986E-03     7.86337E-03     7.95704E-03
            1542               1     45.8068E-03     46.6484E-03     7.55316E-03     7.61301E-03
            1543               1     45.4506E-03     46.2923E-03     7.44498E-03     7.51930E-03
            1544               1     44.8351E-03     45.6960E-03     7.26734E-03     7.33402E-03
            1545               1     44.4982E-03     45.3617E-03     7.14874E-03     7.20817E-03
            1546               1     44.0281E-03     44.9225E-03     7.02433E-03     7.10574E-03
            1547               1     43.7302E-03     44.6127E-03     6.93820E-03     6.97670E-03
            1548               1     43.3187E-03     44.2640E-03     6.81906E-03     6.91293E-03
            1549               1     43.0632E-03     43.9886E-03     6.75244E-03     6.75987E-03
            1550               1     42.6736E-03     43.7294E-03     6.62543E-03     6.71612E-03
            1551               1     42.4831E-03     43.5390E-03     6.54691E-03     6.52724E-03
            1552               1     42.1461E-03     43.4194E-03     6.48097E-03     6.51388E-03
            1553               1     42.1140E-03     43.4412E-03     6.33416E-03     6.39600E-03
            1554               1     42.1733E-03     43.5162E-03     6.69499E-03     6.51007E-03
            1555               1     47.3477E-03     48.3972E-03     4.50965E-03     4.17307E-03
            1556               1     49.3699E-03     51.3182E-03     6.78153E-03     7.17363E-03
            1557               1     51.0625E-03     52.0469E-03     10.1147E-03     10.4554E-03
            1558               1     47.8277E-03     48.7596E-03     9.59254E-03     9.78187E-03
            1559               1     47.7878E-03     48.5934E-03     9.47058E-03     9.61166E-03
            1560               1     46.3420E-03     47.1537E-03     8.86935E-03     8.93313E-03
            1561               1     45.9557E-03     46.7648E-03     8.44468E-03     8.51904E-03
            1562               1     45.1830E-03     46.0212E-03     8.03555E-03     8.08329E-03
            1563               1     44.7765E-03     45.6282E-03     7.67568E-03     7.73025E-03
            1564               1     44.2289E-03     45.1158E-03     7.38137E-03     7.44078E-03
            1565               1     43.8480E-03     44.7349E-03     7.10846E-03     7.14570E-03
            1566               1     43.3675E-03     44.3038E-03     6.85233E-03     6.92141E-03
            1567               1     43.0142E-03     43.9274E-03     6.62982E-03     6.63154E-03
            1568               1     42.5351E-03     43.5323E-03     6.35645E-03     6.41464E-03
            1569               1     42.2221E-03     43.1730E-03     6.13659E-03     6.07110E-03
            1570               1     41.7085E-03     42.8229E-03     5.81262E-03     5.81921E-03
            1571               1     41.5291E-03     42.5694E-03     5.53030E-03     5.39541E-03
            1572               1     40.9989E-03     42.3756E-03     5.19186E-03     5.11769E-03
            1573               1     41.3039E-03     42.5225E-03     4.71914E-03     4.76928E-03
            1574               1     52.3732E-03     55.4161E-03     5.63941E-03     6.42128E-03
            1575               1     56.2173E-03     56.9524E-03     12.3776E-03     13.1358E-03
            1576               1     49.1837E-03     49.9795E-03     12.0754E-03     12.3921E-03
            1577               1     48.5906E-03     49.2662E-03     11.1465E-03     11.3449E-03
            1578               1     46.6496E-03     47.3976E-03     10.4986E-03     10.5771E-03
            1579               1     46.1430E-03     46.9005E-03     9.63731E-03     9.71053E-03
            1580               1     45.2852E-03     46.0893E-03     9.05969E-03     9.08769E-03
            1581               1     44.8327E-03     45.6583E-03     8.43214E-03     8.47385E-03
            1582               1     44.2711E-03     45.1396E-03     7.98391E-03     8.01678E-03
            1583               1     43.8434E-03     44.7251E-03     7.52308E-03     7.55385E-03
            1584               1     43.3460E-03     44.2755E-03     7.14962E-03     7.19358E-03
            1585               1     42.9242E-03     43.8443E-03     6.78290E-03     6.79366E-03
            1586               1     42.4097E-03     43.3883E-03     6.41707E-03     6.45847E-03
            1587               1     41.9897E-03     42.9159E-03     6.07947E-03     6.04031E-03
            1588               1     41.4163E-03     42.4204E-03     5.65213E-03     5.65854E-03
            1589               1     41.0381E-03     41.9186E-03     5.28214E-03     5.14522E-03
            1590               1     40.3673E-03     41.4073E-03     4.70501E-03     4.64851E-03
            1591               1     40.2306E-03     41.0365E-03     4.22932E-03     3.98849E-03
            1592               1     39.4593E-03     40.7280E-03     3.37142E-03     3.39077E-03
            1593               1     66.7655E-03     65.5626E-03     13.4135E-03     14.8200E-03
            1594               1     53.0502E-03     53.0939E-03     15.8005E-03     16.0242E-03
            1595               1     49.0290E-03     49.4204E-03     12.5526E-03     12.7509E-03
            1596               1     47.0583E-03     47.6593E-03     12.2290E-03     12.2670E-03
            1597               1     45.8755E-03     46.5608E-03     10.7626E-03     10.8180E-03
            1598               1     45.1337E-03     45.9006E-03     10.1624E-03     10.1691E-03
            1599               1     44.5692E-03     45.3598E-03     9.26058E-03     9.28188E-03
            1600               1     44.0914E-03     44.9357E-03     8.70305E-03     8.71023E-03
            1601               1     43.6515E-03     44.5116E-03     8.07132E-03     8.08475E-03
            1602               1     43.2043E-03     44.1193E-03     7.60427E-03     7.61767E-03
            1603               1     42.7626E-03     43.6866E-03     7.11517E-03     7.12378E-03
            1604               1     42.2658E-03     43.2514E-03     6.69246E-03     6.70834E-03
            1605               1     41.7858E-03     42.7472E-03     6.25928E-03     6.25472E-03
            1606               1     41.2043E-03     42.2233E-03     5.80826E-03     5.81645E-03
            1607               1     40.6929E-03     41.5996E-03     5.35901E-03     5.32071E-03
            1608               1     40.0141E-03     40.9512E-03     4.78406E-03     4.77035E-03
            1609               1     39.5487E-03     40.1999E-03     4.25906E-03     4.15166E-03
            1610               1     38.7827E-03     39.4728E-03     3.38176E-03     3.37439E-03
            1611               1     38.6320E-03     38.8499E-03     2.73858E-03     2.55159E-03
            1612               1     564.839E-06     658.294E-06     323.263E-06     326.031E-06
            1613               1     602.880E-06     804.306E-06     149.594E-06     142.796E-06
            1614               1     730.520E-06     720.188E-06     400.595E-06     393.931E-06
            1615               1     264.415E-06     300.655E-06     65.7290E-06     114.797E-06
            1616               1     638.335E-06     565.419E-06     303.921E-06     310.996E-06
            1617               1     227.946E-06     356.386E-06     120.660E-06     120.954E-06
            1618               1     11.1117E-03     11.6146E-03     6.35501E-03     6.67976E-03
            1619               1     14.8757E-03     16.5479E-03     8.01420E-03     8.38235E-03
            1620               1     10.7155E-03     11.0514E-03     6.16329E-03     6.36863E-03
            1621               1     16.9241E-03     16.2918E-03     9.59065E-03     9.28565E-03
            1622               1     12.6266E-03     12.3134E-03     7.17034E-03     6.93827E-03
            1623               1     17.0473E-03     16.5463E-03     9.80240E-03     9.53021E-03
            1624               1     13.4306E-03     12.9748E-03     7.22236E-03     6.97321E-03
            1625               1     17.4024E-03     17.2586E-03     9.79502E-03     9.61920E-03
            1626               1     13.6736E-03     13.6646E-03     6.93493E-03     6.76471E-03
            1627               1     18.2692E-03     17.8310E-03     9.56623E-03     9.40369E-03
            1628               1     14.4085E-03     13.9767E-03     6.48058E-03     6.21168E-03
            1629               1     18.3940E-03     18.7645E-03     8.96142E-03     8.81696E-03
            1630               1     13.2237E-03     14.0376E-03     4.90815E-03     5.14442E-03
            1631               1     20.1691E-03     19.0880E-03     8.13518E-03     7.92538E-03
            1632               1     12.0791E-03     14.0619E-03     4.73921E-03     5.12910E-03
            1633               1     19.0853E-03     22.0771E-03     6.06878E-03     6.61803E-03
            1634               1     19.6905E-03     19.0771E-03     9.14183E-03     9.34104E-03
            1635               1     19.6235E-03     19.3237E-03     10.7131E-03     10.8637E-03
            1636               1     19.0645E-03     19.1820E-03     8.62864E-03     8.82219E-03
            1637               1     21.9976E-03     21.7268E-03     11.7022E-03     11.3299E-03
            1638               1     20.5884E-03     20.7553E-03     9.09423E-03     8.93427E-03
            1639               1     23.1036E-03     22.5717E-03     11.2973E-03     10.9122E-03
            1640               1     21.7639E-03     21.6705E-03     8.79432E-03     8.55128E-03
            1641               1     23.7364E-03     23.8004E-03     10.8616E-03     10.6962E-03
            1642               1     22.3375E-03     22.6887E-03     8.33382E-03     8.23384E-03
            1643               1     24.8626E-03     24.6879E-03     10.3308E-03     10.1627E-03
            1644               1     23.4221E-03     23.4215E-03     7.83777E-03     7.63672E-03
            1645               1     25.3389E-03     25.8096E-03     9.68550E-03     9.65746E-03
            1646               1     23.5305E-03     24.2470E-03     6.84829E-03     6.90686E-03
            1647               1     26.9167E-03     26.7319E-03     9.03657E-03     9.02604E-03
            1648               1     24.4354E-03     24.4811E-03     5.98924E-03     5.82982E-03
            1649               1     26.9497E-03     28.2450E-03     7.80690E-03     7.88520E-03
            1650               1     23.6695E-03     24.5923E-03     3.94929E-03     4.26546E-03
            1651               1     29.0734E-03     27.8882E-03     6.41312E-03     6.37644E-03
            1652               1     21.4140E-03     23.2889E-03     3.41110E-03     3.84677E-03
            1653               1     28.0352E-03     31.1538E-03     3.99385E-03     4.71226E-03
            1654               1     29.9881E-03     29.1115E-03     11.6708E-03     11.7169E-03
            1655               1     29.3291E-03     28.4623E-03     13.2621E-03     13.2003E-03
            1656               1     29.7400E-03     29.9604E-03     10.8880E-03     11.0622E-03
            1657               1     31.3058E-03     30.9281E-03     13.5535E-03     13.0878E-03
            1658               1     30.7984E-03     31.1673E-03     10.7064E-03     10.5170E-03
            1659               1     32.0402E-03     32.0436E-03     12.5239E-03     12.0571E-03
            1660               1     31.5288E-03     31.9721E-03     9.99629E-03     9.77137E-03
            1661               1     32.6556E-03     32.6069E-03     11.5477E-03     11.2930E-03
            1662               1     32.3047E-03     32.6488E-03     9.26955E-03     9.09345E-03
            1663               1     33.1069E-03     33.5170E-03     10.7128E-03     10.5670E-03
            1664               1     32.5717E-03     33.2983E-03     8.35352E-03     8.31292E-03
            1665               1     34.0813E-03     34.2177E-03     9.88698E-03     9.84044E-03
            1666               1     33.3782E-03     33.7649E-03     7.55229E-03     7.47965E-03
            1667               1     34.3050E-03     35.1622E-03     8.90269E-03     8.95151E-03
            1668               1     33.2263E-03     34.3440E-03     6.17454E-03     6.36554E-03
            1669               1     35.6932E-03     35.6858E-03     7.93580E-03     8.06504E-03
            1670               1     33.7771E-03     34.1745E-03     5.03045E-03     4.98608E-03
            1671               1     35.3636E-03     37.1550E-03     6.25357E-03     6.50622E-03
            1672               1     32.9563E-03     33.9358E-03     2.70906E-03     3.04007E-03
            1673               1     37.0851E-03     35.9353E-03     4.40678E-03     4.55114E-03
            1674               1     30.2113E-03     31.6841E-03     1.87245E-03     2.31779E-03
            1675               1     35.7370E-03     38.5867E-03     1.77818E-03     2.61448E-03
            1676               1     38.5097E-03     37.6949E-03     13.6046E-03     13.5328E-03
            1677               1     38.2320E-03     37.4807E-03     15.1426E-03     14.9075E-03
            1678               1     38.6050E-03     38.9469E-03     12.5501E-03     12.6763E-03
            1679               1     39.8019E-03     39.2717E-03     14.8197E-03     14.3089E-03
            1680               1     39.1588E-03     39.7761E-03     11.7494E-03     11.5910E-03
            1681               1     39.8070E-03     40.2883E-03     13.1995E-03     12.6463E-03
            1682               1     39.4848E-03     40.2535E-03     10.6721E-03     10.4003E-03
            1683               1     40.0830E-03     40.0908E-03     11.7153E-03     11.4319E-03
            1684               1     39.9141E-03     40.5002E-03     9.52457E-03     9.38902E-03
            1685               1     39.9317E-03     40.6421E-03     10.5425E-03     10.3862E-03
            1686               1     39.7675E-03     40.7861E-03     8.32678E-03     8.30808E-03
            1687               1     40.5835E-03     40.8513E-03     9.39944E-03     9.38494E-03
            1688               1     40.2321E-03     40.8725E-03     7.22696E-03     7.23235E-03
            1689               1     40.3026E-03     41.3959E-03     8.12791E-03     8.22918E-03
            1690               1     39.6996E-03     41.0795E-03     5.59028E-03     5.85890E-03
            1691               1     41.3200E-03     41.4579E-03     6.88920E-03     7.11408E-03
            1692               1     39.8221E-03     40.4933E-03     4.21195E-03     4.26001E-03
            1693               1     40.5367E-03     42.5503E-03     4.86895E-03     5.26359E-03
            1694               1     38.7944E-03     39.8249E-03     1.79269E-03     2.10465E-03
            1695               1     41.6458E-03     40.6747E-03     2.72101E-03     3.03337E-03
            1696               1     35.9857E-03     37.0090E-03     700.183E-06     1.10903E-03
            1697               1     39.9637E-03     42.3540E-03     45.8808E-06     934.069E-06
            1698               1     42.9332E-03     42.4255E-03     13.6422E-03     13.5367E-03
            1699               1     42.8589E-03     42.4212E-03     15.0711E-03     14.7240E-03
            1700               1     43.2136E-03     43.7140E-03     12.1535E-03     12.2425E-03
            1701               1     43.9411E-03     43.5197E-03     14.0984E-03     13.6636E-03
            1702               1     42.8996E-03     44.1175E-03     10.5329E-03     10.6288E-03
            1703               1     43.4685E-03     44.3177E-03     11.7746E-03     11.2130E-03
            1704               1     42.9404E-03     43.9796E-03     8.94834E-03     8.66125E-03
            1705               1     42.8437E-03     43.5270E-03     9.48116E-03     9.38942E-03
            1706               1     42.1286E-03     43.6713E-03     6.73001E-03     6.98540E-03
            1707               1     42.7123E-03     43.2531E-03     7.58799E-03     7.60488E-03
            1708               1     41.6226E-03     42.6677E-03     5.00309E-03     4.89556E-03
            1709               1     41.4820E-03     43.3913E-03     5.05788E-03     5.48786E-03
            1710               1     40.3929E-03     41.5331E-03     2.49123E-03     2.72613E-03
            1711               1     41.4631E-03     40.9666E-03     2.57296E-03     2.94509E-03
            1712               1     37.8388E-03     38.4869E-03     1.02306E-03     1.27955E-03
            1713               1     39.4356E-03     41.2755E-03    -30.7109E-06     838.348E-06
            1714               1     1.17670E-03     1.15851E-03    -678.945E-06    -667.276E-06
            1715               1     1.21351E-03     1.17511E-03    -700.218E-06    -678.258E-06
            1716               1     1.17386E-03     1.17080E-03    -677.523E-06    -675.461E-06
            1717               1     1.07697E-03     1.07328E-03    -618.655E-06    -608.743E-06
            1718               1     1.11986E-03     1.07802E-03    -643.207E-06    -620.766E-06
            1719               1     1.07700E-03     1.07154E-03    -619.607E-06    -618.628E-06
            1720               1     894.951E-06     926.940E-06    -509.298E-06    -500.279E-06
            1721               1     927.186E-06     886.941E-06    -524.627E-06    -506.457E-06
            1722               1     887.069E-06     879.090E-06    -509.092E-06    -504.089E-06
            1723               1     660.599E-06     732.292E-06    -364.769E-06    -350.594E-06
            1724               1     677.449E-06     628.815E-06    -364.741E-06    -351.946E-06
            1725               1     639.135E-06     626.996E-06    -356.051E-06    -361.330E-06
            1726               1     303.617E-06     534.787E-06    -125.538E-06    -122.648E-06
            1727               1     488.253E-06     404.972E-06    -228.966E-06    -207.243E-06
            1728               1     319.111E-06     319.387E-06    -143.494E-06    -139.079E-06
            1729               1     715.053E-06     938.342E-06     218.975E-06     215.288E-06
            1730               1     610.961E-06     532.767E-06     316.148E-06     284.996E-06
            1731               1     318.676E-06     465.603E-06     150.487E-06     175.550E-06
            2140               1     602.880E-06     804.306E-06     149.594E-06     142.796E-06
            2141               1     564.839E-06     658.294E-06     323.263E-06     326.031E-06
            2142               1     264.415E-06     300.655E-06     65.7290E-06     114.797E-06
            2143               1     730.520E-06     720.188E-06     400.595E-06     393.931E-06
            2144               1     227.946E-06     356.386E-06     120.660E-06     120.954E-06
            2145               1     638.335E-06     565.419E-06     303.921E-06     310.996E-06
            2146               1     45.7403E-03     47.7669E-03    -26.3501E-03    -25.4532E-03
            2147               1     47.4784E-03     45.2562E-03    -27.2485E-03    -25.9740E-03
            2148               1     46.3625E-03     47.6398E-03    -26.0554E-03    -26.3445E-03
            2149               1     57.5772E-03     48.4628E-03    -27.3566E-03    -25.9941E-03
            2150               1     51.1892E-03     60.5548E-03    -26.2801E-03    -25.0405E-03
            2151               1     55.4121E-03     46.2510E-03    -25.0452E-03    -24.3029E-03
            2152               1     47.5756E-03     57.8346E-03    -21.6692E-03    -20.6312E-03
            2153               1     21.2916E-03     29.3623E-03    -11.9852E-03    -11.3829E-03
            2154               1     22.1678E-03     20.3226E-03    -12.2710E-03    -11.2932E-03
            2155               1     25.4958E-03     26.8414E-03    -12.5946E-03    -11.9723E-03
            2156               1     45.0019E-03     29.5768E-03    -12.3087E-03    -11.5233E-03
            2157               1     35.2322E-03     54.6292E-03    -11.7550E-03    -11.0175E-03
            2158               1     49.4583E-03     32.2562E-03    -10.7995E-03    -10.0434E-03
            2159               1     41.8188E-03     59.9519E-03    -7.32483E-03    -6.69032E-03
            2160               1     8.76453E-03     26.1363E-03     4.58403E-03     5.37119E-03
            2161               1     10.3968E-03     10.5825E-03     4.18670E-03     4.94258E-03
            2162               1     18.2204E-03     21.4224E-03     5.76709E-03     5.42251E-03
            2163               1     46.4497E-03     26.5595E-03     3.76182E-03     4.74714E-03
            2164               1     32.6494E-03     57.9963E-03     4.32135E-03     5.35540E-03
            2165               1     56.0070E-03     36.8877E-03     5.81290E-03     6.23766E-03
            2166               1     49.5646E-03     70.8352E-03     7.86887E-03     8.63874E-03
            2167               1     40.0315E-03     48.8440E-03     22.9480E-03     23.9232E-03
            2168               1     41.9164E-03     42.1897E-03     23.8905E-03     23.7157E-03
            2169               1     42.3022E-03     41.8810E-03     22.5674E-03     21.0244E-03
            2170               1     62.9958E-03     47.1817E-03     23.4130E-03     23.9346E-03
            2171               1     52.5483E-03     76.6572E-03     22.6882E-03     24.7570E-03
            2172               1     73.4041E-03     57.9910E-03     24.0898E-03     24.3879E-03
            2173               1     71.5164E-03     89.2580E-03     25.8504E-03     26.0453E-03
            2174               1     76.9382E-03     79.7523E-03     44.1658E-03     43.2636E-03
            2175               1     71.5750E-03     72.3878E-03     40.6935E-03     41.5959E-03
            2176               1     78.0391E-03     83.5334E-03     44.1874E-03     46.6112E-03
            2177               1     91.6223E-03     80.8969E-03     41.9559E-03     42.5850E-03
            2178               1     88.2007E-03     102.193E-03     45.9790E-03     44.9027E-03
            2179               1     94.9714E-03     82.9733E-03     38.1763E-03     38.6111E-03
            2180               1     86.5266E-03     101.461E-03     38.9632E-03     39.2175E-03
            2181               1     114.504E-03     119.686E-03     63.8590E-03     63.9544E-03
            2182               1     125.024E-03     122.561E-03     71.6606E-03     70.6845E-03
            2183               1     114.149E-03     122.330E-03     65.2484E-03     69.7277E-03
            2184               1     140.279E-03     132.108E-03     74.6794E-03     73.2298E-03
            2185               1     135.651E-03     144.155E-03     69.4006E-03     67.6283E-03
            2186               1     125.733E-03     118.536E-03     66.0162E-03     65.4592E-03
            2187               1     130.786E-03     142.521E-03     63.4192E-03     63.8945E-03
            2188               1     128.212E-03     135.580E-03     62.9568E-03     63.0858E-03
            2189               1     135.311E-03     141.868E-03     74.2007E-03     74.7949E-03
            2190               1     116.845E-03     115.281E-03     61.0647E-03     62.8681E-03
            2191               1     145.801E-03     140.859E-03     75.4432E-03     75.6850E-03
            2192               1     116.537E-03     122.053E-03     59.2833E-03     58.9722E-03
            2193               1     125.688E-03     125.244E-03     71.7951E-03     70.1666E-03
            2194               1     104.730E-03     106.397E-03     55.6505E-03     57.7765E-03
            2195               1     127.888E-03     128.635E-03     72.4421E-03     72.8077E-03
            2196               1     91.4126E-03     92.5874E-03     51.9121E-03     52.5047E-03
            2197               1     117.704E-03     125.714E-03     67.3423E-03     72.0108E-03
            2198               1     94.2757E-03     97.8402E-03     54.2823E-03     56.3692E-03
            2199               1     123.331E-03     124.042E-03     71.0868E-03     71.4610E-03
            2200               1     100.824E-03     104.005E-03     56.6646E-03     56.9467E-03
            2201               1     121.161E-03     118.805E-03     69.7211E-03     68.4515E-03
            2202               1     601.998E-06     684.620E-06     343.289E-06     350.027E-06
            2203               1     591.489E-06     676.012E-06     338.307E-06     339.000E-06
            2204               1     579.834E-06     668.564E-06     332.376E-06     339.487E-06
            2205               1     582.955E-06     664.483E-06     335.621E-06     336.630E-06
            2206               1     576.815E-06     661.910E-06     332.552E-06     338.676E-06
            2207               1     579.537E-06     657.797E-06     334.509E-06     336.711E-06
            2208               1     576.872E-06     655.704E-06     332.974E-06     338.000E-06
            2209               1     579.110E-06     652.284E-06     333.932E-06     337.052E-06
            2210               1     578.998E-06     649.892E-06     333.318E-06     337.607E-06
            2211               1     581.101E-06     647.187E-06     333.612E-06     337.318E-06
            2212               1     582.889E-06     644.320E-06     333.549E-06     337.368E-06
            2213               1     585.255E-06     642.339E-06     333.415E-06     337.504E-06
            2214               1     588.496E-06     638.956E-06     333.702E-06     337.217E-06
            2215               1     591.527E-06     637.696E-06     333.325E-06     337.620E-06
            2216               1     595.646E-06     633.932E-06     333.726E-06     337.182E-06
            2217               1     599.711E-06     632.244E-06     333.199E-06     337.212E-06
            2218               1     605.463E-06     631.429E-06     334.088E-06     338.718E-06
            2219               1     620.558E-06     645.570E-06     342.920E-06     344.653E-06
            2220               1     553.902E-06     567.947E-06     291.005E-06     296.911E-06
            2221               1     623.665E-06     638.666E-06     339.683E-06     347.677E-06
            2222               1     607.306E-06     630.452E-06     331.129E-06     344.613E-06
            2223               1     617.083E-06     618.583E-06     339.664E-06     339.925E-06
            2224               1     602.136E-06     627.520E-06     332.534E-06     347.233E-06
            2225               1     609.285E-06     613.513E-06     338.849E-06     340.797E-06
            2226               1     597.933E-06     618.985E-06     333.807E-06     345.838E-06
            2227               1     601.296E-06     609.986E-06     337.493E-06     342.156E-06
            2228               1     594.520E-06     611.607E-06     334.999E-06     344.650E-06
            2229               1     594.706E-06     606.644E-06     336.517E-06     343.132E-06
            2230               1     591.295E-06     605.712E-06     335.782E-06     343.867E-06
            2231               1     589.518E-06     603.561E-06     335.885E-06     343.763E-06
            2232               1     588.491E-06     601.088E-06     336.299E-06     343.350E-06
            2233               1     585.551E-06     600.948E-06     335.471E-06     344.173E-06
            2234               1     586.130E-06     597.744E-06     336.564E-06     343.089E-06
            2235               1     583.317E-06     598.591E-06     335.560E-06     344.230E-06
            2236               1     582.923E-06     596.394E-06     335.830E-06     343.482E-06
            2237               1     580.762E-06     590.358E-06     334.939E-06     340.402E-06
            2238               1     591.420E-06     616.820E-06     341.336E-06     355.960E-06
            2239               1     698.276E-06     684.451E-06     403.148E-06     395.121E-06
            2240               1     686.862E-06     618.908E-06     345.514E-06     350.544E-06
            2241               1     675.726E-06     596.633E-06     340.636E-06     341.398E-06
            2242               1     666.096E-06     603.867E-06     339.137E-06     346.178E-06
            2243               1     671.596E-06     596.837E-06     342.385E-06     343.523E-06
            2244               1     663.024E-06     601.103E-06     340.450E-06     346.502E-06
            2245               1     664.843E-06     597.017E-06     342.348E-06     344.583E-06
            2246               1     658.897E-06     599.541E-06     341.084E-06     346.093E-06
            2247               1     658.431E-06     598.357E-06     342.019E-06     345.149E-06
            2248               1     654.391E-06     600.229E-06     341.472E-06     345.754E-06
            2249               1     652.628E-06     601.167E-06     341.756E-06     345.466E-06
            2250               1     649.672E-06     603.011E-06     341.709E-06     345.526E-06
            2251               1     647.304E-06     605.647E-06     341.570E-06     345.661E-06
            2252               1     644.903E-06     607.719E-06     341.863E-06     345.371E-06
            2253               1     642.410E-06     611.852E-06     341.471E-06     345.771E-06
            2254               1     639.996E-06     614.397E-06     341.843E-06     345.343E-06
            2255               1     637.816E-06     618.764E-06     341.316E-06     345.301E-06
            2256               1     636.543E-06     624.499E-06     342.382E-06     346.530E-06
            2257               1     642.571E-06     645.465E-06     350.535E-06     352.831E-06
            2258               1     567.124E-06     578.968E-06     296.425E-06     306.834E-06
            2259               1     129.218E-03     136.555E-03     70.4572E-03     71.3136E-03
            2260               1     128.674E-03     135.482E-03     71.5043E-03     71.8676E-03
            2261               1     126.623E-03     133.900E-03     71.0159E-03     71.8693E-03
            2262               1     125.749E-03     132.307E-03     71.2636E-03     71.7222E-03
            2263               1     124.558E-03     131.129E-03     71.1066E-03     71.8475E-03
            2264               1     123.995E-03     129.799E-03     71.2022E-03     71.7582E-03
            2265               1     123.442E-03     128.775E-03     71.1449E-03     71.8134E-03
            2266               1     123.293E-03     127.746E-03     71.1772E-03     71.7815E-03
            2267               1     123.316E-03     126.911E-03     71.1594E-03     71.7991E-03
            2268               1     123.644E-03     126.152E-03     71.1703E-03     71.7885E-03
            2269               1     124.193E-03     125.553E-03     71.1607E-03     71.7977E-03
            2270               1     125.030E-03     125.043E-03     71.1752E-03     71.7870E-03
            2271               1     126.058E-03     124.711E-03     71.1520E-03     71.8036E-03
            2272               1     127.440E-03     124.471E-03     71.2106E-03     71.7998E-03
            2273               1     128.855E-03     124.348E-03     71.1079E-03     71.7894E-03
            2274               1     131.192E-03     124.967E-03     71.5804E-03     72.1357E-03
            2275               1     132.238E-03     123.712E-03     70.5535E-03     71.2651E-03
            2276               1     141.444E-03     134.024E-03     76.7819E-03     77.3259E-03
            2277               1     134.874E-03     113.802E-03     61.1539E-03     61.8338E-03
            2278               1     137.041E-03     132.468E-03     72.2051E-03     72.8364E-03
            2279               1     137.199E-03     133.052E-03     73.0922E-03     73.8558E-03
            2280               1     135.626E-03     130.858E-03     73.0382E-03     73.5080E-03
            2281               1     134.032E-03     130.090E-03     72.9564E-03     73.7142E-03
            2282               1     132.954E-03     128.886E-03     73.0558E-03     73.5896E-03
            2283               1     131.629E-03     128.322E-03     72.9834E-03     73.6702E-03
            2284               1     130.656E-03     127.762E-03     73.0300E-03     73.6220E-03
            2285               1     129.657E-03     127.585E-03     73.0033E-03     73.6492E-03
            2286               1     128.853E-03     127.583E-03     73.0176E-03     73.6348E-03
            2287               1     128.131E-03     127.867E-03     73.0098E-03     73.6427E-03
            2288               1     127.554E-03     128.372E-03     73.0151E-03     73.6364E-03
            2289               1     127.082E-03     129.148E-03     73.0089E-03     73.6442E-03
            2290               1     126.751E-03     130.112E-03     73.0120E-03     73.6268E-03
            2291               1     126.543E-03     131.405E-03     73.0119E-03     73.6543E-03
            2292               1     126.303E-03     132.619E-03     72.9203E-03     73.5341E-03
            2293               1     126.754E-03     134.853E-03     73.1479E-03     73.7710E-03
            2294               1     124.040E-03     133.510E-03     71.5337E-03     72.2153E-03
            2295               1     131.950E-03     144.516E-03     75.5075E-03     75.9617E-03
            2296               1     90.0343E-03     97.6705E-03     51.4489E-03     52.4933E-03
            2297               1     124.563E-03     126.697E-03     71.5131E-03     72.1695E-03
            2298               1     128.985E-03     130.288E-03     74.3791E-03     74.5637E-03
            2299               1     129.464E-03     131.127E-03     74.6854E-03     75.1936E-03
            2300               1     130.023E-03     131.154E-03     75.0521E-03     75.2522E-03
            2301               1     129.726E-03     131.136E-03     74.8930E-03     75.3225E-03
            2302               1     129.806E-03     130.837E-03     74.9392E-03     75.1954E-03
            2303               1     129.597E-03     130.715E-03     74.8037E-03     75.1901E-03
            2304               1     129.731E-03     130.540E-03     74.8459E-03     75.1356E-03
            2305               1     129.712E-03     130.469E-03     74.7859E-03     75.1451E-03
            2306               1     129.958E-03     130.443E-03     74.8588E-03     75.1695E-03
            2307               1     130.098E-03     130.433E-03     74.8574E-03     75.2013E-03
            2308               1     130.492E-03     130.569E-03     74.9867E-03     75.3079E-03
            2309               1     130.720E-03     130.595E-03     75.0079E-03     75.3476E-03
            2310               1     131.107E-03     130.722E-03     75.1132E-03     75.4379E-03
            2311               1     130.741E-03     130.134E-03     74.7483E-03     75.1148E-03
            2312               1     130.228E-03     128.971E-03     74.2658E-03     74.4487E-03
            2313               1     125.543E-03     122.947E-03     70.7885E-03     70.9222E-03
            2314               1     125.888E-03     123.548E-03     69.3263E-03     70.9293E-03
            2315               1     128.418E-03     115.538E-03     51.6376E-03     57.5602E-03
            2316               1     130.233E-03     131.949E-03     74.9707E-03     75.6096E-03
            2317               1     131.929E-03     134.353E-03     75.9667E-03     77.1303E-03
            2318               1     131.587E-03     132.831E-03     75.8670E-03     76.3355E-03
            2319               1     130.631E-03     133.014E-03     75.3443E-03     76.5055E-03
            2320               1     130.789E-03     132.082E-03     75.4754E-03     76.0185E-03
            2321               1     130.117E-03     132.226E-03     75.1101E-03     76.1598E-03
            2322               1     130.382E-03     131.742E-03     75.2748E-03     75.9267E-03
            2323               1     130.065E-03     131.861E-03     75.0902E-03     76.0389E-03
            2324               1     130.297E-03     131.642E-03     75.2081E-03     75.9452E-03
            2325               1     130.220E-03     131.713E-03     75.1340E-03     76.0137E-03
            2326               1     130.474E-03     131.711E-03     75.2381E-03     76.0296E-03
            2327               1     130.604E-03     131.806E-03     75.2558E-03     76.0952E-03
            2328               1     131.029E-03     132.087E-03     75.4380E-03     76.2602E-03
            2329               1     131.519E-03     132.450E-03     75.6421E-03     76.4660E-03
            2330               1     132.089E-03     132.922E-03     75.9122E-03     76.7325E-03
            2331               1     133.188E-03     133.815E-03     76.3832E-03     77.2174E-03
            2332               1     130.402E-03     130.682E-03     74.6405E-03     75.3666E-03
            2333               1     127.147E-03     126.223E-03     70.9625E-03     71.7128E-03
            2334               1     91.9447E-03     96.7552E-03     48.1721E-03     48.8570E-03
            2335               1     135.409E-03     137.068E-03     77.7501E-03     78.7144E-03
            2336               1     133.282E-03     134.198E-03     76.6392E-03     77.1530E-03
            2337               1     132.573E-03     134.978E-03     76.2952E-03     77.6837E-03
            2338               1     132.088E-03     133.144E-03     76.0896E-03     76.6930E-03
            2339               1     131.068E-03     133.381E-03     75.5530E-03     76.8856E-03
            2340               1     131.357E-03     132.598E-03     75.7668E-03     76.4801E-03
            2341               1     130.813E-03     132.895E-03     75.4868E-03     76.6865E-03
            2342               1     131.074E-03     132.526E-03     75.6608E-03     76.4975E-03
            2343               1     130.822E-03     132.720E-03     75.5276E-03     76.6228E-03
            2344               1     130.979E-03     132.574E-03     75.6202E-03     76.5413E-03
            2345               1     130.920E-03     132.701E-03     75.5766E-03     76.6060E-03
            2346               1     131.095E-03     132.772E-03     75.6580E-03     76.6293E-03
            2347               1     131.350E-03     133.065E-03     75.7712E-03     76.7662E-03
            2348               1     131.839E-03     133.530E-03     76.0161E-03     76.9979E-03
            2349               1     133.265E-03     134.922E-03     76.7750E-03     77.7407E-03
            2350               1     132.827E-03     134.817E-03     76.4696E-03     77.6269E-03
            2351               1     135.322E-03     137.958E-03     77.7863E-03     79.3306E-03
            2352               1     117.021E-03     113.416E-03     67.0859E-03     65.0202E-03
            2353               1     86.9701E-03     69.9169E-03     49.6113E-03     39.6218E-03
            2354               1     129.808E-03     130.969E-03     74.2241E-03     75.1599E-03
            2355               1     132.869E-03     134.128E-03     76.2049E-03     77.2133E-03
            2356               1     132.733E-03     133.198E-03     76.2222E-03     76.7348E-03
            2357               1     132.282E-03     133.859E-03     76.0581E-03     77.1926E-03
            2358               1     132.526E-03     133.128E-03     76.2736E-03     76.8182E-03
            2359               1     132.039E-03     133.570E-03     76.0538E-03     77.1013E-03
            2360               1     132.286E-03     133.196E-03     76.2461E-03     76.8990E-03
            2361               1     131.993E-03     133.488E-03     76.1191E-03     77.0671E-03
            2362               1     132.096E-03     133.309E-03     76.2111E-03     76.9492E-03
            2363               1     131.938E-03     133.488E-03     76.1461E-03     77.0252E-03
            2364               1     131.919E-03     133.419E-03     76.1521E-03     76.9437E-03
            2365               1     131.880E-03     133.577E-03     76.1390E-03     76.9764E-03
            2366               1     131.786E-03     133.576E-03     76.0850E-03     76.9060E-03
            2367               1     132.021E-03     133.952E-03     76.2087E-03     77.0210E-03
            2368               1     131.604E-03     133.741E-03     75.9346E-03     76.7777E-03
            2369               1     132.226E-03     134.453E-03     76.2536E-03     77.0601E-03
            2370               1     127.080E-03     129.768E-03     73.1051E-03     74.0146E-03
            2371               1     119.676E-03     121.033E-03     68.8677E-03     69.8145E-03
            2372               1     83.9057E-03     86.7328E-03     48.1273E-03     48.8322E-03
            2373               1     124.486E-03     124.594E-03     71.4017E-03     71.8645E-03
            2374               1     130.430E-03     130.104E-03     74.6860E-03     74.9796E-03
            2375               1     132.384E-03     132.346E-03     75.8963E-03     76.3447E-03
            2376               1     133.291E-03     132.884E-03     76.4795E-03     76.6929E-03
            2377               1     133.517E-03     133.583E-03     76.6984E-03     77.1187E-03
            2378               1     133.665E-03     133.544E-03     76.8393E-03     77.0983E-03
            2379               1     133.593E-03     133.824E-03     76.8632E-03     77.2477E-03
            2380               1     133.588E-03     133.797E-03     76.9073E-03     77.1985E-03
            2381               1     133.489E-03     133.979E-03     76.8992E-03     77.2575E-03
            2382               1     133.382E-03     133.972E-03     76.8753E-03     77.1870E-03
            2383               1     133.284E-03     134.131E-03     76.8558E-03     77.1984E-03
            2384               1     133.005E-03     134.038E-03     76.7231E-03     77.0450E-03
            2385               1     132.839E-03     134.146E-03     76.6537E-03     76.9879E-03
            2386               1     131.946E-03     133.510E-03     76.1541E-03     76.4843E-03
            2387               1     130.951E-03     132.826E-03     75.5919E-03     75.9368E-03
            2388               1     127.744E-03     129.656E-03     73.7214E-03     73.9668E-03
            2389               1     121.152E-03     122.321E-03     69.8506E-03     69.9624E-03
            2390               1     114.880E-03     117.463E-03     65.6676E-03     67.5008E-03
            2391               1     103.563E-03     97.6919E-03     47.8635E-03     54.1744E-03
            2392               1     11.5010E-03     11.1324E-03    -6.03121E-03    -6.07480E-03
            2393               1     13.4451E-03     12.8291E-03    -7.04351E-03    -6.92290E-03
            2394               1     14.0651E-03     13.7566E-03    -7.42762E-03    -7.46188E-03
            2395               1     14.8872E-03     14.4875E-03    -7.98490E-03    -7.94476E-03
            2396               1     15.0464E-03     14.7751E-03    -8.17885E-03    -8.18990E-03
            2397               1     15.3537E-03     15.0814E-03    -8.46127E-03    -8.44975E-03
            2398               1     15.2977E-03     15.0814E-03    -8.52402E-03    -8.52388E-03
            2399               1     15.3862E-03     15.2033E-03    -8.66101E-03    -8.65804E-03
            2400               1     15.2293E-03     15.0816E-03    -8.64002E-03    -8.63728E-03
            2401               1     15.2316E-03     15.1239E-03    -8.70030E-03    -8.69904E-03
            2402               1     14.9790E-03     14.9017E-03    -8.59596E-03    -8.59284E-03
            2403               1     14.9208E-03     14.8825E-03    -8.59287E-03    -8.59176E-03
            2404               1     14.4881E-03     14.4773E-03    -8.35754E-03    -8.35503E-03
            2405               1     14.3041E-03     14.3259E-03    -8.25659E-03    -8.25682E-03
            2406               1     13.5150E-03     13.5618E-03    -7.79845E-03    -7.80331E-03
            2407               1     13.0777E-03     13.1429E-03    -7.54402E-03    -7.55925E-03
            2408               1     11.6945E-03     11.7833E-03    -6.73388E-03    -6.78974E-03
            2409               1     11.3126E-03     11.3883E-03    -6.41482E-03    -6.55595E-03
            2410               1     11.0442E-03     10.5204E-03    -4.45220E-03    -5.13772E-03
            2411               1     13.2261E-03     12.5105E-03    -6.81293E-03    -6.52827E-03
            2412               1     13.9625E-03     13.8471E-03    -7.22575E-03    -7.29125E-03
            2413               1     14.9679E-03     14.4883E-03    -7.84158E-03    -7.71639E-03
            2414               1     14.9898E-03     14.8296E-03    -7.99143E-03    -8.02492E-03
            2415               1     15.3073E-03     15.0230E-03    -8.29522E-03    -8.25482E-03
            2416               1     15.1682E-03     14.9950E-03    -8.34455E-03    -8.34542E-03
            2417               1     15.2267E-03     15.0548E-03    -8.48275E-03    -8.47289E-03
            2418               1     15.0682E-03     14.9285E-03    -8.48335E-03    -8.47504E-03
            2419               1     15.0549E-03     14.9513E-03    -8.55153E-03    -8.54904E-03
            2420               1     14.8827E-03     14.7928E-03    -8.50857E-03    -8.49923E-03
            2421               1     14.8612E-03     14.8129E-03    -8.54088E-03    -8.53948E-03
            2422               1     14.6324E-03     14.5942E-03    -8.43209E-03    -8.42283E-03
            2423               1     14.5964E-03     14.6037E-03    -8.42151E-03    -8.42281E-03
            2424               1     14.1953E-03     14.2119E-03    -8.18283E-03    -8.17800E-03
            2425               1     14.0258E-03     14.0963E-03    -8.06636E-03    -8.08188E-03
            2426               1     13.2195E-03     13.3240E-03    -7.58967E-03    -7.62493E-03
            2427               1     12.5560E-03     12.7416E-03    -7.20381E-03    -7.29516E-03
            2428               1     11.0971E-03     11.5274E-03    -6.32490E-03    -6.63312E-03
            2429               1     7.43105E-03     8.00892E-03    -3.98307E-03    -4.06875E-03
            2430               1     13.4487E-03     13.6859E-03    -6.91657E-03    -7.03088E-03
            2431               1     14.9902E-03     14.6324E-03    -7.71448E-03    -7.58604E-03
            2432               1     15.1950E-03     15.2401E-03    -7.98413E-03    -8.05097E-03
            2433               1     15.5629E-03     15.3039E-03    -8.29865E-03    -8.23406E-03
            2434               1     15.2922E-03     15.2157E-03    -8.30768E-03    -8.31449E-03
            2435               1     15.2727E-03     15.1341E-03    -8.40684E-03    -8.38791E-03
            2436               1     15.0395E-03     14.9441E-03    -8.38976E-03    -8.37924E-03
            2437               1     14.9572E-03     14.8793E-03    -8.43096E-03    -8.42655E-03
            2438               1     14.7969E-03     14.7214E-03    -8.41262E-03    -8.39980E-03
            2439               1     14.7497E-03     14.7071E-03    -8.44478E-03    -8.44280E-03
            2440               1     14.6328E-03     14.5862E-03    -8.41438E-03    -8.40217E-03
            2441               1     14.6446E-03     14.6341E-03    -8.44568E-03    -8.44504E-03
            2442               1     14.5036E-03     14.4895E-03    -8.36703E-03    -8.35741E-03
            2443               1     14.5215E-03     14.5484E-03    -8.36140E-03    -8.36679E-03
            2444               1     14.1327E-03     14.1671E-03    -8.11477E-03    -8.12063E-03
            2445               1     13.7646E-03     13.8093E-03    -7.86916E-03    -7.88083E-03
            2446               1     12.5909E-03     12.7334E-03    -7.20758E-03    -7.28955E-03
            2447               1     10.2255E-03     9.97970E-03    -5.88578E-03    -5.75821E-03
            2448               1     6.47796E-03     5.89780E-03    -3.73159E-03    -3.40303E-03
            2449               1     13.8111E-03     14.0591E-03    -6.85531E-03    -6.98427E-03
            2450               1     15.1375E-03     15.4348E-03    -7.81975E-03    -7.93901E-03
            2451               1     15.7656E-03     15.6617E-03    -8.29114E-03    -8.27033E-03
            2452               1     15.5338E-03     15.5807E-03    -8.36254E-03    -8.36600E-03
            2453               1     15.4447E-03     15.3918E-03    -8.40778E-03    -8.39745E-03
            2454               1     15.1355E-03     15.1135E-03    -8.36987E-03    -8.35425E-03
            2455               1     14.9479E-03     14.9290E-03    -8.35221E-03    -8.35046E-03
            2456               1     14.7506E-03     14.7184E-03    -8.32958E-03    -8.31384E-03
            2457               1     14.6249E-03     14.6155E-03    -8.32692E-03    -8.32597E-03
            2458               1     14.5350E-03     14.5065E-03    -8.32702E-03    -8.31319E-03
            2459               1     14.5059E-03     14.5000E-03    -8.35004E-03    -8.34854E-03
            2460               1     14.4914E-03     14.4689E-03    -8.35911E-03    -8.34707E-03
            2461               1     14.5477E-03     14.5480E-03    -8.39393E-03    -8.39385E-03
            2462               1     14.4820E-03     14.4697E-03    -8.34385E-03    -8.33615E-03
            2463               1     14.4410E-03     14.4341E-03    -8.27892E-03    -8.27535E-03
            2464               1     13.7823E-03     13.7704E-03    -7.86799E-03    -7.86168E-03
            2465               1     12.5886E-03     12.3515E-03    -7.13105E-03    -7.01852E-03
            2466               1     10.0508E-03     9.75358E-03    -5.62541E-03    -5.44664E-03
            2467               1     6.55607E-03     6.15718E-03    -3.50580E-03    -3.33065E-03
            2468               1     14.5677E-03     15.0141E-03    -6.95157E-03    -7.18200E-03
            2469               1     15.6330E-03     15.7875E-03    -8.01263E-03    -8.10151E-03
            2470               1     15.6203E-03     15.7724E-03    -8.32230E-03    -8.30325E-03
            2471               1     15.5225E-03     15.6322E-03    -8.36261E-03    -8.39762E-03
            2472               1     15.2379E-03     15.3001E-03    -8.36571E-03    -8.33530E-03
            2473               1     14.9504E-03     15.0343E-03    -8.28215E-03    -8.29581E-03
            2474               1     14.7272E-03     14.7626E-03    -8.25863E-03    -8.23816E-03
            2475               1     14.5046E-03     14.5611E-03    -8.20353E-03    -8.20747E-03
            2476               1     14.3976E-03     14.4154E-03    -8.20712E-03    -8.19236E-03
            2477               1     14.2829E-03     14.3124E-03    -8.19188E-03    -8.19146E-03
            2478               1     14.2908E-03     14.2905E-03    -8.22772E-03    -8.21560E-03
            2479               1     14.2819E-03     14.2862E-03    -8.24256E-03    -8.24024E-03
            2480               1     14.3621E-03     14.3426E-03    -8.29055E-03    -8.27975E-03
            2481               1     14.3947E-03     14.3680E-03    -8.28944E-03    -8.28290E-03
            2482               1     14.2928E-03     14.2429E-03    -8.20584E-03    -8.19024E-03
            2483               1     14.0283E-03     13.8983E-03    -7.95888E-03    -7.91570E-03
            2484               1     12.6122E-03     12.3983E-03    -7.02110E-03    -6.91075E-03
            2485               1     10.7269E-03     10.2788E-03    -5.66536E-03    -5.47817E-03
            2486               1     7.74922E-03     7.31852E-03    -3.40450E-03    -3.14995E-03
            2487               1     15.9120E-03     16.0847E-03    -7.56067E-03    -7.63139E-03
            2488               1     15.4985E-03     15.6388E-03    -8.03139E-03    -7.91349E-03
            2489               1     15.3314E-03     15.6730E-03    -8.11464E-03    -8.22673E-03
            2490               1     15.1849E-03     15.3120E-03    -8.26247E-03    -8.19426E-03
            2491               1     14.8219E-03     15.0615E-03    -8.13550E-03    -8.18453E-03
            2492               1     14.6519E-03     14.7683E-03    -8.15881E-03    -8.12804E-03
            2493               1     14.3511E-03     14.5089E-03    -8.05830E-03    -8.07411E-03
            2494               1     14.2389E-03     14.3276E-03    -8.07042E-03    -8.05410E-03
            2495               1     14.0391E-03     14.1355E-03    -8.01277E-03    -8.01608E-03
            2496               1     14.0245E-03     14.0749E-03    -8.04812E-03    -8.03682E-03
            2497               1     13.9183E-03     13.9612E-03    -8.01908E-03    -8.01800E-03
            2498               1     14.0062E-03     14.0129E-03    -8.08377E-03    -8.07375E-03
            2499               1     13.9591E-03     13.9462E-03    -8.05652E-03    -8.05123E-03
            2500               1     14.0824E-03     14.0344E-03    -8.11460E-03    -8.10018E-03
            2501               1     13.9884E-03     13.8956E-03    -8.00349E-03    -7.98666E-03
            2502               1     13.7882E-03     13.6322E-03    -7.82257E-03    -7.77820E-03
            2503               1     13.5769E-03     13.3784E-03    -7.38499E-03    -7.36949E-03
            2504               1     11.6076E-03     11.3142E-03    -5.67917E-03    -5.51843E-03
            2505               1     9.79015E-03     9.20246E-03    -3.48677E-03    -3.19637E-03
            2506               1     15.6802E-03     15.7743E-03    -7.64943E-03    -7.30396E-03
            2507               1     15.0007E-03     15.5382E-03    -7.60496E-03    -7.74168E-03
            2508               1     14.8948E-03     15.0933E-03    -7.94707E-03    -7.82158E-03
            2509               1     14.4630E-03     14.8840E-03    -7.82082E-03    -7.90521E-03
            2510               1     14.4274E-03     14.6448E-03    -7.95770E-03    -7.91471E-03
            2511               1     14.0977E-03     14.3842E-03    -7.84858E-03    -7.87883E-03
            2512               1     14.0291E-03     14.2134E-03    -7.89914E-03    -7.88190E-03
            2513               1     13.7793E-03     13.9694E-03    -7.81869E-03    -7.82665E-03
            2514               1     13.7489E-03     13.8772E-03    -7.85671E-03    -7.84723E-03
            2515               1     13.5678E-03     13.6782E-03    -7.79360E-03    -7.79472E-03
            2516               1     13.6141E-03     13.6764E-03    -7.84611E-03    -7.83904E-03
            2517               1     13.4699E-03     13.5017E-03    -7.77616E-03    -7.77394E-03
            2518               1     13.5881E-03     13.5750E-03    -7.84174E-03    -7.83304E-03
            2519               1     13.4118E-03     13.3501E-03    -7.71306E-03    -7.70443E-03
            2520               1     13.5492E-03     13.4292E-03    -7.74972E-03    -7.72868E-03
            2521               1     13.3171E-03     13.1334E-03    -7.46100E-03    -7.45633E-03
            2522               1     13.4140E-03     13.1429E-03    -7.31827E-03    -7.28755E-03
            2523               1     14.3025E-03     14.0271E-03    -6.69414E-03    -6.80393E-03
            2524               1     12.5255E-03     12.6475E-03    -3.52145E-03    -3.49427E-03
            2525               1     14.6923E-03     15.5243E-03    -6.70408E-03    -6.81436E-03
            2526               1     14.4956E-03     14.9430E-03    -7.36653E-03    -7.22651E-03
            2527               1     13.9449E-03     14.5159E-03    -7.30339E-03    -7.37283E-03
            2528               1     14.0287E-03     14.4105E-03    -7.59706E-03    -7.55701E-03
            2529               1     13.7264E-03     14.1449E-03    -7.54329E-03    -7.57110E-03
            2530               1     13.7320E-03     14.0488E-03    -7.66149E-03    -7.64864E-03
            2531               1     13.4786E-03     13.7816E-03    -7.59216E-03    -7.60034E-03
            2532               1     13.4551E-03     13.6912E-03    -7.64726E-03    -7.64188E-03
            2533               1     13.2414E-03     13.4432E-03    -7.57464E-03    -7.57663E-03
            2534               1     13.2552E-03     13.4000E-03    -7.62051E-03    -7.61722E-03
            2535               1     13.0624E-03     13.1640E-03    -7.53304E-03    -7.53347E-03
            2536               1     13.1307E-03     13.1753E-03    -7.58095E-03    -7.57755E-03
            2537               1     12.8899E-03     12.8821E-03    -7.43278E-03    -7.43219E-03
            2538               1     12.9962E-03     12.9180E-03    -7.46500E-03    -7.45698E-03
            2539               1     12.6147E-03     12.4671E-03    -7.16518E-03    -7.16616E-03
            2540               1     12.8752E-03     12.6104E-03    -7.18272E-03    -7.16283E-03
            2541               1     12.5430E-03     12.1736E-03    -6.57162E-03    -6.60265E-03
            2542               1     14.1475E-03     13.5829E-03    -6.87597E-03    -6.87712E-03
            2543               1     18.3679E-03     17.3470E-03    -5.06637E-03    -5.42487E-03
            2544               1     19.9908E-03     19.0875E-03    -4.50353E-03    -4.44635E-03
            2545               1     20.5964E-03     19.8694E-03    -5.74906E-03    -5.67486E-03
            2546               1     20.6669E-03     20.1065E-03    -6.68349E-03    -6.65306E-03
            2547               1     20.5207E-03     20.0627E-03    -7.52165E-03    -7.47957E-03
            2548               1     20.0779E-03     19.7177E-03    -8.09019E-03    -8.07161E-03
            2549               1     19.6152E-03     19.3246E-03    -8.61250E-03    -8.59210E-03
            2550               1     18.9487E-03     18.7103E-03    -8.90156E-03    -8.88714E-03
            2551               1     18.3860E-03     18.2051E-03    -9.18416E-03    -9.17493E-03
            2552               1     17.6600E-03     17.5100E-03    -9.25365E-03    -9.24220E-03
            2553               1     17.1257E-03     17.0247E-03    -9.34703E-03    -9.34269E-03
            2554               1     16.4062E-03     16.3302E-03    -9.21393E-03    -9.20593E-03
            2555               1     15.9421E-03     15.9092E-03    -9.12749E-03    -9.12763E-03
            2556               1     15.2034E-03     15.1981E-03    -8.77132E-03    -8.77022E-03
            2557               1     14.7288E-03     14.7757E-03    -8.47271E-03    -8.48634E-03
            2558               1     13.8404E-03     13.9336E-03    -7.85587E-03    -7.87377E-03
            2559               1     13.0948E-03     13.3159E-03    -7.28489E-03    -7.34898E-03
            2560               1     11.6891E-03     12.0623E-03    -6.35293E-03    -6.44571E-03
            2561               1     10.0831E-03     10.9560E-03    -5.43468E-03    -5.72632E-03
            2562               1     6.20518E-03     8.35931E-03    -3.50383E-03    -4.47937E-03
            2563               1     21.7431E-03     21.4285E-03    -4.90290E-03    -4.75235E-03
            2564               1     21.9152E-03     21.5979E-03    -5.88740E-03    -5.80997E-03
            2565               1     21.6762E-03     21.3107E-03    -6.76298E-03    -6.64312E-03
            2566               1     21.0424E-03     20.7765E-03    -7.35372E-03    -7.29799E-03
            2567               1     20.3556E-03     20.0830E-03    -7.91515E-03    -7.84869E-03
            2568               1     19.4602E-03     19.2551E-03    -8.24428E-03    -8.19996E-03
            2569               1     18.6636E-03     18.4906E-03    -8.56576E-03    -8.53429E-03
            2570               1     17.7677E-03     17.6164E-03    -8.70549E-03    -8.66994E-03
            2571               1     17.0462E-03     16.9463E-03    -8.85476E-03    -8.83984E-03
            2572               1     16.2669E-03     16.1681E-03    -8.83316E-03    -8.80648E-03
            2573               1     15.7321E-03     15.6884E-03    -8.84173E-03    -8.83666E-03
            2574               1     15.0967E-03     15.0563E-03    -8.64769E-03    -8.63369E-03
            2575               1     14.7642E-03     14.7877E-03    -8.50262E-03    -8.51690E-03
            2576               1     14.2090E-03     14.2569E-03    -8.09806E-03    -8.11405E-03
            2577               1     13.9068E-03     14.0690E-03    -7.74298E-03    -7.81777E-03
            2578               1     13.2208E-03     13.4556E-03    -7.09018E-03    -7.19693E-03
            2579               1     12.4637E-03     12.9572E-03    -6.42712E-03    -6.68592E-03
            2580               1     10.9057E-03     11.7267E-03    -5.41003E-03    -5.94269E-03
            2581               1     8.61948E-03     8.07734E-03    -4.00909E-03    -4.28051E-03
            2582               1     23.1464E-03     23.3915E-03    -5.18655E-03    -5.25178E-03
            2583               1     23.1427E-03     23.1238E-03    -6.23750E-03    -6.11168E-03
            2584               1     22.5323E-03     22.5476E-03    -6.88808E-03    -6.85410E-03
            2585               1     21.7318E-03     21.5913E-03    -7.49506E-03    -7.39613E-03
            2586               1     20.6089E-03     20.5498E-03    -7.81921E-03    -7.76508E-03
            2587               1     19.5817E-03     19.4735E-03    -8.14713E-03    -8.09477E-03
            2588               1     18.4386E-03     18.3565E-03    -8.30098E-03    -8.24885E-03
            2589               1     17.4692E-03     17.4083E-03    -8.46323E-03    -8.43755E-03
            2590               1     16.5170E-03     16.4410E-03    -8.50290E-03    -8.46085E-03
            2591               1     15.7916E-03     15.7618E-03    -8.56191E-03    -8.54944E-03
            2592               1     15.1134E-03     15.0596E-03    -8.48775E-03    -8.45895E-03
            2593               1     14.7423E-03     14.7420E-03    -8.45247E-03    -8.45462E-03
            2594               1     14.3173E-03     14.3096E-03    -8.21989E-03    -8.21672E-03
            2595               1     14.2403E-03     14.2968E-03    -8.04412E-03    -8.08192E-03
            2596               1     13.8886E-03     13.9697E-03    -7.57378E-03    -7.63540E-03
            2597               1     13.6939E-03     13.8329E-03    -7.14427E-03    -7.25923E-03
            2598               1     12.9315E-03     13.1247E-03    -6.32523E-03    -6.55515E-03
            2599               1     11.7658E-03     11.2562E-03    -5.41487E-03    -5.42916E-03
            2600               1     9.00725E-03     8.61963E-03    -3.54755E-03    -3.29646E-03
            2601               1     24.3967E-03     24.7906E-03    -5.46645E-03    -5.47797E-03
            2602               1     24.0998E-03     24.4876E-03    -6.43847E-03    -6.52455E-03
            2603               1     23.3577E-03     23.4581E-03    -7.22180E-03    -7.14327E-03
            2604               1     22.1233E-03     22.3190E-03    -7.57637E-03    -7.55273E-03
            2605               1     20.9565E-03     20.9839E-03    -7.91788E-03    -7.86575E-03
            2606               1     19.5649E-03     19.6310E-03    -8.05088E-03    -7.99574E-03
            2607               1     18.3570E-03     18.3880E-03    -8.18809E-03    -8.16105E-03
            2608               1     17.1671E-03     17.1725E-03    -8.23731E-03    -8.18584E-03
            2609               1     16.1805E-03     16.2085E-03    -8.29475E-03    -8.27955E-03
            2610               1     15.3384E-03     15.3160E-03    -8.28734E-03    -8.24681E-03
            2611               1     14.7645E-03     14.7785E-03    -8.30232E-03    -8.29524E-03
            2612               1     14.3141E-03     14.2820E-03    -8.20648E-03    -8.18214E-03
            2613               1     14.2272E-03     14.2270E-03    -8.15559E-03    -8.16305E-03
            2614               1     14.0212E-03     14.0005E-03    -7.86476E-03    -7.87621E-03
            2615               1     14.1695E-03     14.1327E-03    -7.63587E-03    -7.66506E-03
            2616               1     13.7863E-03     13.7449E-03    -6.96321E-03    -7.04170E-03
            2617               1     13.3973E-03     13.0158E-03    -6.30338E-03    -6.27008E-03
            2618               1     11.9863E-03     11.6136E-03    -4.88505E-03    -4.80086E-03
            2619               1     10.6206E-03     9.96617E-03    -3.10209E-03    -3.14585E-03
            2620               1     25.8212E-03     26.3312E-03    -5.62302E-03    -5.85924E-03
            2621               1     25.0415E-03     25.3564E-03    -6.86132E-03    -6.83525E-03
            2622               1     23.7604E-03     24.2513E-03    -7.36331E-03    -7.42513E-03
            2623               1     22.5544E-03     22.7507E-03    -7.80320E-03    -7.78137E-03
            2624               1     20.9417E-03     21.2181E-03    -7.91903E-03    -7.88061E-03
            2625               1     19.5607E-03     19.7321E-03    -8.01737E-03    -8.00803E-03
            2626               1     18.1279E-03     18.2713E-03    -8.04144E-03    -7.98913E-03
            2627               1     16.8838E-03     17.0194E-03    -8.05408E-03    -8.04706E-03
            2628               1     15.8120E-03     15.8757E-03    -8.06124E-03    -8.01553E-03
            2629               1     14.9477E-03     15.0283E-03    -8.06809E-03    -8.06044E-03
            2630               1     14.3427E-03     14.3419E-03    -8.05424E-03    -8.01715E-03
            2631               1     14.0361E-03     14.0458E-03    -8.05805E-03    -8.05103E-03
            2632               1     13.8582E-03     13.7975E-03    -7.94510E-03    -7.92094E-03
            2633               1     14.0915E-03     13.9953E-03    -7.87626E-03    -7.86500E-03
            2634               1     13.9603E-03     13.8242E-03    -7.43069E-03    -7.43135E-03
            2635               1     14.2070E-03     13.8606E-03    -7.04451E-03    -6.98478E-03
            2636               1     13.5255E-03     13.1567E-03    -5.89810E-03    -5.84706E-03
            2637               1     12.9499E-03     12.3288E-03    -4.67268E-03    -4.58234E-03
            2638               1     12.2296E-03     11.4910E-03    -2.79745E-03    -2.54262E-03
            2639               1     27.1496E-03     27.5492E-03    -6.26855E-03    -6.22615E-03
            2640               1     25.6143E-03     26.2802E-03    -7.03047E-03    -7.18351E-03
            2641               1     24.3062E-03     24.6213E-03    -7.70667E-03    -7.73177E-03
            2642               1     22.4145E-03     22.9055E-03    -7.83983E-03    -7.82296E-03
            2643               1     20.9104E-03     21.2452E-03    -7.90623E-03    -7.93941E-03
            2644               1     19.2544E-03     19.5681E-03    -7.89977E-03    -7.85192E-03
            2645               1     17.8006E-03     18.0853E-03    -7.83989E-03    -7.85741E-03
            2646               1     16.4956E-03     16.6912E-03    -7.82764E-03    -7.78282E-03
            2647               1     15.3390E-03     15.5379E-03    -7.78210E-03    -7.78523E-03
            2648               1     14.4993E-03     14.5898E-03    -7.79246E-03    -7.75250E-03
            2649               1     13.8592E-03     13.9446E-03    -7.78528E-03    -7.77857E-03
            2650               1     13.5621E-03     13.5333E-03    -7.78732E-03    -7.74767E-03
            2651               1     13.5781E-03     13.5129E-03    -7.78789E-03    -7.76753E-03
            2652               1     13.6462E-03     13.4773E-03    -7.63589E-03    -7.59107E-03
            2653               1     14.2234E-03     13.9169E-03    -7.51175E-03    -7.44830E-03
            2654               1     14.0391E-03     13.6789E-03    -6.74377E-03    -6.67828E-03
            2655               1     14.4208E-03     13.8346E-03    -6.01100E-03    -5.88860E-03
            2656               1     14.0282E-03     13.3621E-03    -4.30089E-03    -4.13763E-03
            2657               1     13.8956E-03     13.3195E-03    -2.45778E-03    -2.34071E-03
            2658               1     28.1859E-03     28.8131E-03    -6.58391E-03    -6.80425E-03
            2659               1     26.4747E-03     26.7617E-03    -7.63118E-03    -7.65461E-03
            2660               1     23.9992E-03     24.6360E-03    -7.77244E-03    -7.73972E-03
            2661               1     22.3269E-03     22.8031E-03    -7.79895E-03    -7.88739E-03
            2662               1     20.4287E-03     20.9061E-03    -7.77619E-03    -7.72610E-03
            2663               1     18.8039E-03     19.2563E-03    -7.62737E-03    -7.68473E-03
            2664               1     17.2974E-03     17.6486E-03    -7.58757E-03    -7.54634E-03
            2665               1     15.8975E-03     16.2519E-03    -7.46560E-03    -7.49015E-03
            2666               1     14.8089E-03     15.0387E-03    -7.46163E-03    -7.42593E-03
            2667               1     13.8288E-03     14.0449E-03    -7.40178E-03    -7.40537E-03
            2668               1     13.2855E-03     13.3623E-03    -7.43940E-03    -7.40121E-03
            2669               1     12.9233E-03     12.9557E-03    -7.42877E-03    -7.41500E-03
            2670               1     12.9663E-03     12.8460E-03    -7.45660E-03    -7.40225E-03
            2671               1     13.3376E-03     13.1253E-03    -7.43859E-03    -7.39167E-03
            2672               1     13.6733E-03     13.3244E-03    -7.23420E-03    -7.14061E-03
            2673               1     14.8328E-03     14.2946E-03    -7.01881E-03    -6.90326E-03
            2674               1     14.8180E-03     14.2427E-03    -5.73541E-03    -5.61755E-03
            2675               1     15.6235E-03     14.9720E-03    -4.49202E-03    -4.32587E-03
            2676               1     16.2550E-03     15.3997E-03    -2.17898E-03    -1.96959E-03
            2677               1     29.5179E-03     29.6730E-03    -7.71031E-03    -7.66185E-03
            2678               1     25.8867E-03     26.5518E-03    -7.79045E-03    -7.62478E-03
            2679               1     23.8511E-03     24.4315E-03    -7.65361E-03    -7.79523E-03
            2680               1     21.6279E-03     22.2185E-03    -7.63741E-03    -7.55215E-03
            2681               1     19.8100E-03     20.4217E-03    -7.37113E-03    -7.47539E-03
            2682               1     18.1350E-03     18.6367E-03    -7.31977E-03    -7.27719E-03
            2683               1     16.5430E-03     17.0663E-03    -7.11392E-03    -7.16579E-03
            2684               1     15.2409E-03     15.6348E-03    -7.08542E-03    -7.05617E-03
            2685               1     13.9774E-03     14.3608E-03    -6.95866E-03    -6.97743E-03
            2686               1     13.1405E-03     13.3787E-03    -6.98130E-03    -6.95244E-03
            2687               1     12.3837E-03     12.5689E-03    -6.91895E-03    -6.91772E-03
            2688               1     12.1742E-03     12.1853E-03    -6.99281E-03    -6.95101E-03
            2689               1     12.1091E-03     12.0321E-03    -6.96294E-03    -6.93948E-03
            2690               1     12.5565E-03     12.2856E-03    -7.03803E-03    -6.95703E-03
            2691               1     13.3709E-03     12.9893E-03    -6.97204E-03    -6.90616E-03
            2692               1     14.2335E-03     13.6939E-03    -6.80390E-03    -6.64819E-03
            2693               1     16.6729E-03     15.9555E-03    -6.52970E-03    -6.37082E-03
            2694               1     17.3158E-03     16.5522E-03    -4.31633E-03    -4.19481E-03
            2695               1     18.3480E-03     17.9260E-03    -2.20188E-03    -2.03510E-03
            2696               1     28.2698E-03     28.9182E-03    -8.03207E-03    -7.58043E-03
            2697               1     25.5421E-03     26.2285E-03    -7.42279E-03    -7.59724E-03
            2698               1     22.9122E-03     23.5699E-03    -7.45132E-03    -7.29543E-03
            2699               1     20.8152E-03     21.5440E-03    -7.02187E-03    -7.15489E-03
            2700               1     18.9814E-03     19.6123E-03    -6.98492E-03    -6.93407E-03
            2701               1     17.2233E-03     17.8956E-03    -6.70339E-03    -6.77324E-03
            2702               1     15.7525E-03     16.3159E-03    -6.65925E-03    -6.63615E-03
            2703               1     14.2783E-03     14.8377E-03    -6.47505E-03    -6.50486E-03
            2704               1     13.1708E-03     13.6033E-03    -6.46690E-03    -6.44886E-03
            2705               1     12.0836E-03     12.4598E-03    -6.35051E-03    -6.35929E-03
            2706               1     11.5123E-03     11.7217E-03    -6.39879E-03    -6.37583E-03
            2707               1     11.0019E-03     11.1028E-03    -6.32020E-03    -6.31471E-03
            2708               1     11.1710E-03     11.0635E-03    -6.43151E-03    -6.38723E-03
            2709               1     11.4275E-03     11.1983E-03    -6.34603E-03    -6.32123E-03
            2710               1     12.4457E-03     12.0114E-03    -6.52346E-03    -6.42298E-03
            2711               1     13.8577E-03     13.3455E-03    -6.36453E-03    -6.30164E-03
            2712               1     15.7961E-03     15.1589E-03    -6.52859E-03    -6.31813E-03
            2713               1     20.8305E-03     20.0714E-03    -6.22710E-03    -6.00934E-03
            2714               1     22.4994E-03     21.3817E-03    -2.01225E-03    -1.90180E-03
            2715               1     27.3487E-03     28.1883E-03    -6.91022E-03    -7.07241E-03
            2716               1     24.3848E-03     25.1619E-03    -7.10526E-03    -6.93060E-03
            2717               1     21.8954E-03     22.6397E-03    -6.52635E-03    -6.62305E-03
            2718               1     19.8838E-03     20.6348E-03    -6.52595E-03    -6.47912E-03
            2719               1     17.9596E-03     18.7133E-03    -6.20922E-03    -6.25657E-03
            2720               1     16.3322E-03     17.0634E-03    -6.15708E-03    -6.14262E-03
            2721               1     14.7055E-03     15.4166E-03    -5.94473E-03    -5.96550E-03
            2722               1     13.3701E-03     14.0130E-03    -5.90613E-03    -5.89860E-03
            2723               1     12.0391E-03     12.6193E-03    -5.75604E-03    -5.76407E-03
            2724               1     11.1104E-03     11.5618E-03    -5.76183E-03    -5.75446E-03
            2725               1     10.2246E-03     10.5512E-03    -5.64683E-03    -5.64885E-03
            2726               1     9.94713E-03     10.0734E-03    -5.70907E-03    -5.69656E-03
            2727               1     9.72446E-03     9.67416E-03    -5.58743E-03    -5.58533E-03
            2728               1     10.3605E-03     10.0897E-03    -5.72643E-03    -5.69643E-03
            2729               1     10.9907E-03     10.5849E-03    -5.52808E-03    -5.52288E-03
            2730               1     12.8333E-03     12.2981E-03    -5.86236E-03    -5.78495E-03
            2731               1     14.8430E-03     14.3279E-03    -5.45706E-03    -5.44801E-03
            2732               1     18.9822E-03     18.5262E-03    -6.62198E-03    -6.41178E-03
            2733               1     28.3448E-03     28.3718E-03    -5.19999E-03    -4.97195E-03
            2734               1     33.2154E-03     32.4510E-03    -3.29121E-03    -3.11671E-03
            2735               1     31.7911E-03     31.3733E-03    -4.68301E-03    -4.71107E-03
            2736               1     30.5118E-03     30.0721E-03    -6.20081E-03    -6.08390E-03
            2737               1     28.7716E-03     28.5868E-03    -7.14619E-03    -7.13985E-03
            2738               1     27.1903E-03     27.0214E-03    -8.14035E-03    -8.07452E-03
            2739               1     25.3207E-03     25.2931E-03    -8.70579E-03    -8.69075E-03
            2740               1     23.6911E-03     23.6828E-03    -9.31387E-03    -9.27880E-03
            2741               1     21.8679E-03     21.9202E-03    -9.55415E-03    -9.53941E-03
            2742               1     20.4165E-03     20.4736E-03    -9.85637E-03    -9.83728E-03
            2743               1     18.8150E-03     18.8822E-03    -9.79802E-03    -9.78865E-03
            2744               1     17.7615E-03     17.8066E-03    -9.83237E-03    -9.82181E-03
            2745               1     16.5343E-03     16.5682E-03    -9.46766E-03    -9.47081E-03
            2746               1     16.0203E-03     16.0082E-03    -9.23136E-03    -9.22992E-03
            2747               1     15.2130E-03     15.2253E-03    -8.52462E-03    -8.55757E-03
            2748               1     15.1457E-03     15.1342E-03    -7.98170E-03    -8.00280E-03
            2749               1     14.5288E-03     14.7242E-03    -6.86063E-03    -6.97502E-03
            2750               1     14.4735E-03     14.8520E-03    -5.93886E-03    -6.05078E-03
            2751               1     13.1904E-03     14.4512E-03    -4.12753E-03    -4.55389E-03
            2752               1     12.1973E-03     15.6708E-03    -2.22859E-03    -3.45563E-03
            2753               1     35.2598E-03     35.4675E-03    -3.17854E-03    -3.28712E-03
            2754               1     33.8758E-03     33.6986E-03    -4.80264E-03    -4.53598E-03
            2755               1     31.7098E-03     31.7908E-03    -5.73818E-03    -5.73855E-03
            2756               1     29.8091E-03     29.6755E-03    -6.85485E-03    -6.65874E-03
            2757               1     27.4786E-03     27.5597E-03    -7.44863E-03    -7.41216E-03
            2758               1     25.4274E-03     25.4046E-03    -8.15776E-03    -8.04292E-03
            2759               1     23.1486E-03     23.2440E-03    -8.47437E-03    -8.43116E-03
            2760               1     21.2174E-03     21.2695E-03    -8.87315E-03    -8.80960E-03
            2761               1     19.2041E-03     19.2940E-03    -8.94021E-03    -8.90573E-03
            2762               1     17.6924E-03     17.7515E-03    -9.09422E-03    -9.05853E-03
            2763               1     16.1845E-03     16.2429E-03    -8.90662E-03    -8.89449E-03
            2764               1     15.4283E-03     15.4343E-03    -8.83889E-03    -8.82482E-03
            2765               1     14.6426E-03     14.6792E-03    -8.36234E-03    -8.39892E-03
            2766               1     14.7869E-03     14.7544E-03    -8.05697E-03    -8.08328E-03
            2767               1     14.6796E-03     14.8068E-03    -7.24622E-03    -7.39281E-03
            2768               1     15.4055E-03     15.4945E-03    -6.65658E-03    -6.80434E-03
            2769               1     15.5034E-03     15.9211E-03    -5.49242E-03    -5.90105E-03
            2770               1     16.3818E-03     16.8466E-03    -4.42620E-03    -5.13968E-03
            2771               1     17.0693E-03     14.9812E-03    -4.01418E-03    -4.40018E-03
            2772               1     37.6864E-03     38.0495E-03    -3.76114E-03    -3.71760E-03
            2773               1     35.3668E-03     35.8928E-03    -4.84564E-03    -4.89869E-03
            2774               1     33.2857E-03     33.3786E-03    -5.96645E-03    -5.73788E-03
            2775               1     30.5848E-03     30.9398E-03    -6.57088E-03    -6.54670E-03
            2776               1     28.2135E-03     28.2787E-03    -7.32342E-03    -7.15040E-03
            2777               1     25.4909E-03     25.7368E-03    -7.65961E-03    -7.60486E-03
            2778               1     23.1227E-03     23.2226E-03    -8.10486E-03    -8.00044E-03
            2779               1     20.6453E-03     20.8181E-03    -8.24071E-03    -8.18633E-03
            2780               1     18.6002E-03     18.7059E-03    -8.46370E-03    -8.40284E-03
            2781               1     16.6511E-03     16.7572E-03    -8.40938E-03    -8.37424E-03
            2782               1     15.3789E-03     15.4274E-03    -8.45715E-03    -8.42493E-03
            2783               1     14.3157E-03     14.3574E-03    -8.18066E-03    -8.18759E-03
            2784               1     14.2590E-03     14.2117E-03    -8.05086E-03    -8.05632E-03
            2785               1     14.2522E-03     14.2750E-03    -7.49916E-03    -7.59098E-03
            2786               1     15.2481E-03     15.1479E-03    -7.13923E-03    -7.23452E-03
            2787               1     15.9265E-03     15.9287E-03    -6.32124E-03    -6.55339E-03
            2788               1     17.1770E-03     17.0015E-03    -5.59368E-03    -5.93023E-03
            2789               1     18.1781E-03     17.0279E-03    -4.99704E-03    -5.10187E-03
            2790               1     16.9709E-03     16.5592E-03    -3.39488E-03    -3.20680E-03
            2791               1     39.3352E-03     39.9577E-03    -4.30645E-03    -4.41395E-03
            2792               1     37.0429E-03     37.4632E-03    -5.35785E-03    -5.25899E-03
            2793               1     34.2062E-03     34.8894E-03    -6.04892E-03    -6.07621E-03
            2794               1     31.6356E-03     31.8753E-03    -6.79639E-03    -6.63038E-03
            2795               1     28.5582E-03     29.0512E-03    -7.13042E-03    -7.09012E-03
            2796               1     25.8712E-03     26.0791E-03    -7.56992E-03    -7.45048E-03
            2797               1     22.9639E-03     23.2936E-03    -7.72011E-03    -7.65920E-03
            2798               1     20.4469E-03     20.6416E-03    -7.95253E-03    -7.87747E-03
            2799               1     18.0100E-03     18.2155E-03    -7.97305E-03    -7.92053E-03
            2800               1     16.1006E-03     16.2326E-03    -8.07332E-03    -8.02686E-03
            2801               1     14.5371E-03     14.6232E-03    -7.94998E-03    -7.92428E-03
            2802               1     13.8882E-03     13.8814E-03    -7.93490E-03    -7.91541E-03
            2803               1     13.6117E-03     13.5821E-03    -7.60301E-03    -7.63060E-03
            2804               1     14.4825E-03     14.3027E-03    -7.42186E-03    -7.45334E-03
            2805               1     15.2848E-03     15.1131E-03    -6.81764E-03    -6.92378E-03
            2806               1     16.7996E-03     16.4282E-03    -6.32126E-03    -6.45668E-03
            2807               1     18.0378E-03     17.2687E-03    -5.57262E-03    -5.63452E-03
            2808               1     18.4178E-03     17.8101E-03    -4.42159E-03    -4.41595E-03
            2809               1     19.4016E-03     18.1616E-03    -2.81653E-03    -2.97667E-03
            2810               1     40.6881E-03     41.3967E-03    -4.84857E-03    -4.88034E-03
            2811               1     38.0520E-03     38.8590E-03    -5.73123E-03    -5.81541E-03
            2812               1     35.3036E-03     35.7420E-03    -6.49629E-03    -6.41122E-03
            2813               1     32.0074E-03     32.7636E-03    -6.85898E-03    -6.85418E-03
            2814               1     29.1131E-03     29.4643E-03    -7.25788E-03    -7.16975E-03
            2815               1     25.8504E-03     26.3897E-03    -7.38925E-03    -7.33626E-03
            2816               1     22.9931E-03     23.3132E-03    -7.57175E-03    -7.50796E-03
            2817               1     20.1208E-03     20.4776E-03    -7.60964E-03    -7.55130E-03
            2818               1     17.6443E-03     17.8986E-03    -7.69531E-03    -7.64918E-03
            2819               1     15.5138E-03     15.7054E-03    -7.66328E-03    -7.61660E-03
            2820               1     14.0553E-03     14.1581E-03    -7.69357E-03    -7.66081E-03
            2821               1     13.2229E-03     13.2190E-03    -7.54557E-03    -7.52271E-03
            2822               1     13.5220E-03     13.3682E-03    -7.49104E-03    -7.47776E-03
            2823               1     14.1335E-03     13.9059E-03    -7.10738E-03    -7.12317E-03
            2824               1     15.7690E-03     15.3319E-03    -6.82578E-03    -6.84903E-03
            2825               1     17.1228E-03     16.4987E-03    -6.09619E-03    -6.11205E-03
            2826               1     18.4734E-03     17.7894E-03    -5.27325E-03    -5.26589E-03
            2827               1     19.8778E-03     18.7966E-03    -3.96478E-03    -3.97132E-03
            2828               1     20.5389E-03     19.6569E-03    -2.35472E-03    -2.17850E-03
            2829               1     42.0235E-03     42.6517E-03    -5.32244E-03    -5.46129E-03
            2830               1     39.0384E-03     39.6192E-03    -6.31707E-03    -6.28373E-03
            2831               1     35.6298E-03     36.5508E-03    -6.75666E-03    -6.79654E-03
            2832               1     32.5691E-03     33.0457E-03    -7.13878E-03    -7.11922E-03
            2833               1     29.0072E-03     29.7569E-03    -7.23963E-03    -7.20108E-03
            2834               1     25.9289E-03     26.3872E-03    -7.32390E-03    -7.30544E-03
            2835               1     22.7070E-03     23.2418E-03    -7.33545E-03    -7.28139E-03
            2836               1     19.8267E-03     20.2251E-03    -7.34330E-03    -7.32001E-03
            2837               1     17.1984E-03     17.5430E-03    -7.33779E-03    -7.28572E-03
            2838               1     14.9848E-03     15.2455E-03    -7.34283E-03    -7.31516E-03
            2839               1     13.4522E-03     13.5642E-03    -7.31245E-03    -7.26411E-03
            2840               1     12.7914E-03     12.7700E-03    -7.31040E-03    -7.27972E-03
            2841               1     12.9267E-03     12.7284E-03    -7.16372E-03    -7.11842E-03
            2842               1     14.2616E-03     13.8543E-03    -7.06398E-03    -7.02714E-03
            2843               1     15.5751E-03     15.0333E-03    -6.55238E-03    -6.51001E-03
            2844               1     17.6518E-03     16.9277E-03    -6.06966E-03    -6.00509E-03
            2845               1     19.3353E-03     18.3902E-03    -4.87489E-03    -4.83381E-03
            2846               1     20.7412E-03     19.8856E-03    -3.62064E-03    -3.49441E-03
            2847               1     22.7835E-03     21.6398E-03    -1.74825E-03    -1.69355E-03
            2848               1     42.9882E-03     43.6636E-03    -6.12042E-03    -6.01560E-03
            2849               1     39.4319E-03     40.3643E-03    -6.71265E-03    -6.79090E-03
            2850               1     36.1418E-03     36.6664E-03    -7.18586E-03    -7.22615E-03
            2851               1     32.2416E-03     33.1403E-03    -7.24770E-03    -7.20572E-03
            2852               1     28.9986E-03     29.5771E-03    -7.19703E-03    -7.25386E-03
            2853               1     25.4938E-03     26.1923E-03    -7.15757E-03    -7.10650E-03
            2854               1     22.3569E-03     22.9006E-03    -7.03153E-03    -7.05664E-03
            2855               1     19.3538E-03     19.8644E-03    -7.00178E-03    -6.95460E-03
            2856               1     16.6014E-03     17.0340E-03    -6.91966E-03    -6.91678E-03
            2857               1     14.4149E-03     14.7055E-03    -6.92860E-03    -6.87770E-03
            2858               1     12.7269E-03     12.9136E-03    -6.90166E-03    -6.87845E-03
            2859               1     12.0895E-03     12.0271E-03    -6.91662E-03    -6.84816E-03
            2860               1     12.4998E-03     12.2499E-03    -6.89858E-03    -6.85000E-03
            2861               1     13.6169E-03     13.1474E-03    -6.75638E-03    -6.65479E-03
            2862               1     15.9407E-03     15.2434E-03    -6.59310E-03    -6.48791E-03
            2863               1     17.7599E-03     16.9486E-03    -5.74423E-03    -5.64829E-03
            2864               1     20.2864E-03     19.3945E-03    -4.96292E-03    -4.80422E-03
            2865               1     22.5603E-03     21.4045E-03    -3.10859E-03    -3.01672E-03
            2866               1     24.2034E-03     23.3631E-03    -1.34998E-03    -1.22894E-03
            2867               1     43.7338E-03     44.5066E-03    -6.69444E-03    -6.82348E-03
            2868               1     39.9856E-03     40.4323E-03    -7.43320E-03    -7.46255E-03
            2869               1     35.4900E-03     36.4506E-03    -7.40570E-03    -7.31139E-03
            2870               1     32.0640E-03     32.7159E-03    -7.17441E-03    -7.31418E-03
            2871               1     28.2870E-03     29.0947E-03    -7.06829E-03    -7.00173E-03
            2872               1     24.9787E-03     25.6467E-03    -6.75749E-03    -6.84983E-03
            2873               1     21.7153E-03     22.3685E-03    -6.67390E-03    -6.63193E-03
            2874               1     18.6376E-03     19.2283E-03    -6.45762E-03    -6.49500E-03
            2875               1     15.9611E-03     16.4410E-03    -6.44378E-03    -6.40345E-03
            2876               1     13.4934E-03     13.9045E-03    -6.33342E-03    -6.33352E-03
            2877               1     11.9632E-03     12.1361E-03    -6.40035E-03    -6.34024E-03
            2878               1     11.1041E-03     11.1129E-03    -6.36584E-03    -6.33405E-03
            2879               1     11.6003E-03     11.2798E-03    -6.46406E-03    -6.35531E-03
            2880               1     13.1942E-03     12.6808E-03    -6.43515E-03    -6.34747E-03
            2881               1     15.1866E-03     14.4867E-03    -6.30360E-03    -6.12463E-03
            2882               1     18.7042E-03     17.7658E-03    -6.09952E-03    -5.89054E-03
            2883               1     21.1067E-03     20.0880E-03    -4.60719E-03    -4.48939E-03
            2884               1     24.0346E-03     23.2058E-03    -3.36620E-03    -3.16457E-03
            2885               1     27.0768E-03     25.7123E-03    -847.810E-06    -643.381E-06
            2886               1     44.4626E-03     44.7371E-03    -8.04071E-03    -7.97521E-03
            2887               1     38.8034E-03     39.7363E-03    -7.79811E-03    -7.54242E-03
            2888               1     35.0866E-03     35.7656E-03    -7.23561E-03    -7.45133E-03
            2889               1     30.9911E-03     31.8270E-03    -7.05348E-03    -6.93267E-03
            2890               1     27.5271E-03     28.2786E-03    -6.49730E-03    -6.66004E-03
            2891               1     24.0896E-03     24.8320E-03    -6.35004E-03    -6.30248E-03
            2892               1     20.8273E-03     21.5417E-03    -5.96771E-03    -6.05036E-03
            2893               1     17.8395E-03     18.4766E-03    -5.89735E-03    -5.86884E-03
            2894               1     14.9119E-03     15.5162E-03    -5.67081E-03    -5.69957E-03
            2895               1     12.6379E-03     13.0726E-03    -5.70871E-03    -5.67009E-03
            2896               1     10.6385E-03     10.9562E-03    -5.59854E-03    -5.59265E-03
            2897               1     10.0451E-03     10.0114E-03    -5.75552E-03    -5.67847E-03
            2898               1     10.3181E-03     10.0713E-03    -5.71546E-03    -5.67029E-03
            2899               1     12.0439E-03     11.4794E-03    -5.95024E-03    -5.79091E-03
            2900               1     14.8082E-03     14.1242E-03    -5.91528E-03    -5.78472E-03
            2901               1     17.6767E-03     16.8795E-03    -5.92328E-03    -5.63771E-03
            2902               1     23.0670E-03     21.9958E-03    -5.76612E-03    -5.41319E-03
            2903               1     26.3613E-03     24.9909E-03    -3.01507E-03    -2.90025E-03
            2904               1     28.7759E-03     28.3929E-03    -842.872E-06    -763.478E-06
            2905               1     42.2472E-03     43.0908E-03    -8.60220E-03    -8.03206E-03
            2906               1     38.0322E-03     38.7229E-03    -7.33244E-03    -7.60333E-03
            2907               1     33.5889E-03     34.3735E-03    -7.08023E-03    -6.87409E-03
            2908               1     29.9300E-03     30.6936E-03    -6.20776E-03    -6.41135E-03
            2909               1     26.3777E-03     27.1431E-03    -5.99507E-03    -5.93154E-03
            2910               1     23.0047E-03     23.7826E-03    -5.43616E-03    -5.54576E-03
            2911               1     19.8462E-03     20.5883E-03    -5.29565E-03    -5.27369E-03
            2912               1     16.6950E-03     17.4368E-03    -4.94671E-03    -4.99454E-03
            2913               1     13.9444E-03     14.5971E-03    -4.91603E-03    -4.89717E-03
            2914               1     11.2303E-03     11.8249E-03    -4.71203E-03    -4.72544E-03
            2915               1     9.46478E-03     9.81541E-03    -4.81814E-03    -4.78092E-03
            2916               1     8.22482E-03     8.34264E-03    -4.70947E-03    -4.69870E-03
            2917               1     8.93358E-03     8.62625E-03    -4.97795E-03    -4.89221E-03
            2918               1     10.4941E-03     10.0200E-03    -4.91591E-03    -4.86779E-03
            2919               1     13.3774E-03     12.7227E-03    -5.38016E-03    -5.18580E-03
            2920               1     17.1861E-03     16.5438E-03    -5.31994E-03    -5.17128E-03
            2921               1     21.1558E-03     20.5087E-03    -5.90176E-03    -5.47357E-03
            2922               1     29.8725E-03     28.9927E-03    -5.87456E-03    -5.26952E-03
            2923               1     34.3528E-03     31.9528E-03    -445.737E-06    -193.830E-06
            2924               1     40.7675E-03     41.3968E-03    -7.24869E-03    -7.48599E-03
            2925               1     36.1291E-03     36.8405E-03    -7.00176E-03    -6.78525E-03
            2926               1     32.2061E-03     32.8179E-03    -5.82128E-03    -5.96386E-03
            2927               1     28.5714E-03     29.3048E-03    -5.52828E-03    -5.46799E-03
            2928               1     25.1235E-03     25.8569E-03    -4.83333E-03    -4.90550E-03
            2929               1     21.8752E-03     22.6720E-03    -4.60733E-03    -4.59077E-03
            2930               1     18.6425E-03     19.4487E-03    -4.16030E-03    -4.19335E-03
            2931               1     15.6421E-03     16.4495E-03    -4.04455E-03    -4.03747E-03
            2932               1     12.6085E-03     13.3978E-03    -3.75800E-03    -3.77109E-03
            2933               1     10.0354E-03     10.7300E-03    -3.77571E-03    -3.76599E-03
            2934               1     7.60614E-03     8.16096E-03    -3.59724E-03    -3.60029E-03
            2935               1     6.62814E-03     6.79287E-03    -3.76917E-03    -3.74665E-03
            2936               1     6.71194E-03     6.46868E-03    -3.64751E-03    -3.64289E-03
            2937               1     8.96272E-03     8.43371E-03    -4.02443E-03    -3.96844E-03
            2938               1     11.6124E-03     11.0413E-03    -3.89585E-03    -3.87857E-03
            2939               1     15.5021E-03     15.0109E-03    -4.67551E-03    -4.52938E-03
            2940               1     19.9271E-03     19.6702E-03    -4.42947E-03    -4.36480E-03
            2941               1     25.9535E-03     26.1312E-03    -6.55371E-03    -6.09723E-03
            2942               1     39.7246E-03     41.3657E-03    -5.44448E-03    -4.58066E-03
            2943               1     45.5189E-03     44.9758E-03    -2.46398E-03    -2.21173E-03
            2944               1     42.2431E-03     42.1517E-03    -3.98505E-03    -4.08068E-03
            2945               1     39.5777E-03     39.3532E-03    -5.92757E-03    -5.76111E-03
            2946               1     36.3589E-03     36.4797E-03    -6.98840E-03    -6.99838E-03
            2947               1     33.5140E-03     33.6093E-03    -8.22852E-03    -8.13525E-03
            2948               1     30.3372E-03     30.6229E-03    -8.86294E-03    -8.84918E-03
            2949               1     27.5594E-03     27.8365E-03    -9.61628E-03    -9.56627E-03
            2950               1     24.5853E-03     24.9300E-03    -9.86443E-03    -9.84737E-03
            2951               1     22.2029E-03     22.5058E-03    -10.2376E-03    -10.2100E-03
            2952               1     19.7323E-03     20.0025E-03    -10.1132E-03    -10.1021E-03
            2953               1     18.2288E-03     18.3826E-03    -10.1543E-03    -10.1385E-03
            2954               1     16.7091E-03     16.7546E-03    -9.63389E-03    -9.63922E-03
            2955               1     16.5742E-03     16.4417E-03    -9.34409E-03    -9.33986E-03
            2956               1     16.2935E-03     16.0981E-03    -8.36711E-03    -8.41109E-03
            2957               1     17.4393E-03     17.1365E-03    -7.71362E-03    -7.73438E-03
            2958               1     17.9933E-03     17.9042E-03    -6.14553E-03    -6.29019E-03
            2959               1     19.7962E-03     19.8935E-03    -5.07186E-03    -5.18781E-03
            2960               1     20.2227E-03     21.2399E-03    -2.37078E-03    -2.88155E-03
            2961               1     23.9529E-03     27.0900E-03    -486.940E-06    -1.82601E-03
            2962               1     47.8761E-03     48.5043E-03    -1.90137E-03    -2.18405E-03
            2963               1     44.9598E-03     45.0109E-03    -3.97883E-03    -3.61662E-03
            2964               1     40.9862E-03     41.4292E-03    -5.02259E-03    -5.08077E-03
            2965               1     37.7054E-03     37.8236E-03    -6.44829E-03    -6.17548E-03
            2966               1     33.8717E-03     34.2834E-03    -7.11613E-03    -7.08945E-03
            2967               1     30.5107E-03     30.7551E-03    -8.01575E-03    -7.85373E-03
            2968               1     26.8710E-03     27.2741E-03    -8.36347E-03    -8.31492E-03
            2969               1     23.7328E-03     24.0408E-03    -8.86763E-03    -8.77666E-03
            2970               1     20.5438E-03     20.8861E-03    -8.90817E-03    -8.86648E-03
            2971               1     18.1459E-03     18.3792E-03    -9.10072E-03    -9.04882E-03
            2972               1     15.9547E-03     16.1212E-03    -8.81334E-03    -8.79951E-03
            2973               1     15.1800E-03     15.1552E-03    -8.72580E-03    -8.70326E-03
            2974               1     14.7392E-03     14.6502E-03    -8.05834E-03    -8.10731E-03
            2975               1     16.0503E-03     15.7656E-03    -7.67782E-03    -7.70569E-03
            2976               1     17.2008E-03     17.0410E-03    -6.56815E-03    -6.75355E-03
            2977               1     19.8020E-03     19.5334E-03    -5.84846E-03    -6.01802E-03
            2978               1     21.4988E-03     21.5255E-03    -4.29943E-03    -4.79064E-03
            2979               1     25.4197E-03     25.2869E-03    -3.03425E-03    -3.84430E-03
            2980               1     27.8165E-03     24.8903E-03    -3.67708E-03    -4.10938E-03
            2981               1     51.2134E-03     51.6944E-03    -2.65910E-03    -2.62327E-03
            2982               1     46.6624E-03     47.5806E-03    -3.85685E-03    -3.97769E-03
            2983               1     43.0603E-03     43.3720E-03    -5.18887E-03    -4.87420E-03
            2984               1     38.6320E-03     39.3515E-03    -5.86393E-03    -5.86291E-03
            2985               1     34.8461E-03     35.1597E-03    -6.81171E-03    -6.56849E-03
            2986               1     30.5999E-03     31.1717E-03    -7.19174E-03    -7.13419E-03
            2987               1     26.8596E-03     27.2107E-03    -7.76318E-03    -7.61399E-03
            2988               1     22.9864E-03     23.4411E-03    -7.90352E-03    -7.83863E-03
            2989               1     19.7036E-03     20.0241E-03    -8.18990E-03    -8.10162E-03
            2990               1     16.6602E-03     16.9532E-03    -8.08628E-03    -8.04315E-03
            2991               1     14.7728E-03     14.8902E-03    -8.14388E-03    -8.09549E-03
            2992               1     13.5977E-03     13.6105E-03    -7.75007E-03    -7.76084E-03
            2993               1     14.3912E-03     14.1509E-03    -7.58131E-03    -7.58250E-03
            2994               1     15.5970E-03     15.3726E-03    -6.84074E-03    -6.96035E-03
            2995               1     18.4306E-03     17.9750E-03    -6.39480E-03    -6.50813E-03
            2996               1     20.7978E-03     20.4329E-03    -5.38796E-03    -5.68029E-03
            2997               1     24.3184E-03     23.6503E-03    -4.53416E-03    -4.93898E-03
            2998               1     27.1369E-03     25.4874E-03    -4.37993E-03    -4.52265E-03
            2999               1     27.0330E-03     26.4708E-03    -2.90363E-03    -2.78906E-03
            3000               1     52.9203E-03     53.7431E-03    -3.62941E-03    -3.67547E-03
            3001               1     48.8336E-03     49.4101E-03    -4.47894E-03    -4.34727E-03
            3002               1     44.1030E-03     45.1527E-03    -5.19935E-03    -5.23695E-03
            3003               1     40.0151E-03     40.4670E-03    -6.04127E-03    -5.80751E-03
            3004               1     35.2736E-03     36.1097E-03    -6.41296E-03    -6.37175E-03
            3005               1     31.1267E-03     31.5664E-03    -6.96102E-03    -6.78915E-03
            3006               1     26.6835E-03     27.3119E-03    -7.13194E-03    -7.06027E-03
            3007               1     22.7368E-03     23.1565E-03    -7.43483E-03    -7.32498E-03
            3008               1     18.9182E-03     19.3597E-03    -7.44367E-03    -7.37882E-03
            3009               1     15.8526E-03     16.1375E-03    -7.57306E-03    -7.50391E-03
            3010               1     13.5491E-03     13.7134E-03    -7.39361E-03    -7.36163E-03
            3011               1     13.0372E-03     12.9377E-03    -7.36963E-03    -7.33770E-03
            3012               1     13.6344E-03     13.4203E-03    -6.93147E-03    -6.96927E-03
            3013               1     16.2217E-03     15.7177E-03    -6.70594E-03    -6.74208E-03
            3014               1     18.7688E-03     18.2684E-03    -5.98753E-03    -6.13034E-03
            3015               1     22.3240E-03     21.5408E-03    -5.42150E-03    -5.59867E-03
            3016               1     25.4028E-03     24.2326E-03    -4.81614E-03    -4.91977E-03
            3017               1     27.2780E-03     26.3945E-03    -3.68850E-03    -3.76118E-03
            3018               1     29.7644E-03     28.0887E-03    -2.30225E-03    -2.52300E-03
            3019               1     54.1374E-03     55.0730E-03    -4.33520E-03    -4.36710E-03
            3020               1     49.8401E-03     50.9191E-03    -5.06665E-03    -5.10250E-03
            3021               1     45.4605E-03     46.0689E-03    -5.70717E-03    -5.58140E-03
            3022               1     40.4292E-03     41.5239E-03    -6.06095E-03    -6.04418E-03
            3023               1     36.0200E-03     36.5671E-03    -6.48762E-03    -6.35529E-03
            3024               1     31.1323E-03     31.9763E-03    -6.63272E-03    -6.56864E-03
            3025               1     26.7716E-03     27.2998E-03    -6.86075E-03    -6.76327E-03
            3026               1     22.3676E-03     22.9799E-03    -6.90527E-03    -6.83360E-03
            3027               1     18.4409E-03     18.8853E-03    -7.02060E-03    -6.94989E-03
            3028               1     15.0704E-03     15.4260E-03    -6.97529E-03    -6.91599E-03
            3029               1     12.8532E-03     12.9975E-03    -7.01386E-03    -6.96331E-03
            3030               1     12.1375E-03     12.0468E-03    -6.82596E-03    -6.79697E-03
            3031               1     13.6936E-03     13.2744E-03    -6.75901E-03    -6.73667E-03
            3032               1     15.9665E-03     15.4538E-03    -6.31544E-03    -6.34222E-03
            3033               1     19.6479E-03     18.8407E-03    -6.00476E-03    -6.04068E-03
            3034               1     22.8975E-03     21.9214E-03    -5.28574E-03    -5.33207E-03
            3035               1     25.9378E-03     24.9492E-03    -4.45505E-03    -4.50162E-03
            3036               1     29.0215E-03     27.5606E-03    -3.25877E-03    -3.30847E-03
            3037               1     30.7063E-03     29.5991E-03    -1.65792E-03    -1.56668E-03
            3038               1     55.3286E-03     56.0967E-03    -5.03895E-03    -5.10983E-03
            3039               1     50.7530E-03     51.5166E-03    -5.76120E-03    -5.70559E-03
            3040               1     45.7152E-03     46.9262E-03    -6.08287E-03    -6.08301E-03
            3041               1     41.1090E-03     41.7414E-03    -6.35809E-03    -6.31676E-03
            3042               1     35.8926E-03     36.9367E-03    -6.43284E-03    -6.37693E-03
            3043               1     31.2992E-03     31.9291E-03    -6.49512E-03    -6.45581E-03
            3044               1     26.4831E-03     27.2703E-03    -6.50702E-03    -6.44007E-03
            3045               1     22.0637E-03     22.6429E-03    -6.51767E-03    -6.47529E-03
            3046               1     17.9483E-03     18.4940E-03    -6.51804E-03    -6.45219E-03
            3047               1     14.3810E-03     14.7786E-03    -6.52927E-03    -6.48420E-03
            3048               1     12.0641E-03     12.2189E-03    -6.50412E-03    -6.44082E-03
            3049               1     11.6161E-03     11.4545E-03    -6.50617E-03    -6.45974E-03
            3050               1     12.9806E-03     12.5483E-03    -6.36112E-03    -6.30322E-03
            3051               1     16.3199E-03     15.5712E-03    -6.26377E-03    -6.21565E-03
            3052               1     19.5595E-03     18.7150E-03    -5.74373E-03    -5.70469E-03
            3053               1     23.5679E-03     22.5354E-03    -5.26381E-03    -5.21133E-03
            3054               1     27.0799E-03     25.7845E-03    -4.05289E-03    -4.04008E-03
            3055               1     29.7808E-03     28.7027E-03    -2.79151E-03    -2.73211E-03
            3056               1     33.2405E-03     31.7294E-03    -933.871E-06    -909.095E-06
            3057               1     55.9180E-03     56.8032E-03    -5.96525E-03    -5.81584E-03
            3058               1     50.9324E-03     52.0865E-03    -6.31677E-03    -6.34291E-03
            3059               1     46.1418E-03     46.7978E-03    -6.57016E-03    -6.60931E-03
            3060               1     40.6401E-03     41.8035E-03    -6.52774E-03    -6.45616E-03
            3061               1     35.9142E-03     36.6188E-03    -6.35250E-03    -6.41156E-03
            3062               1     30.8137E-03     31.7431E-03    -6.27865E-03    -6.21367E-03
            3063               1     26.1549E-03     26.8410E-03    -6.09663E-03    -6.11650E-03
            3064               1     21.5902E-03     22.2964E-03    -6.06542E-03    -6.00669E-03
            3065               1     17.2875E-03     17.8718E-03    -5.96335E-03    -5.94977E-03
            3066               1     13.7592E-03     14.1826E-03    -5.99503E-03    -5.92874E-03
            3067               1     11.1272E-03     11.3456E-03    -5.96901E-03    -5.93144E-03
            3068               1     10.7015E-03     10.5026E-03    -6.03064E-03    -5.93933E-03
            3069               1     12.5700E-03     12.0360E-03    -6.03018E-03    -5.96232E-03
            3070               1     15.5380E-03     14.8101E-03    -5.94519E-03    -5.81390E-03
            3071               1     20.0535E-03     19.0480E-03    -5.81527E-03    -5.68365E-03
            3072               1     23.7853E-03     22.6895E-03    -4.92823E-03    -4.82736E-03
            3073               1     28.0036E-03     26.8884E-03    -4.15780E-03    -4.00524E-03
            3074               1     31.9605E-03     30.4216E-03    -2.17050E-03    -2.09631E-03
            3075               1     34.5047E-03     33.4649E-03    -359.343E-06    -338.070E-06
            3076               1     56.3193E-03     57.2379E-03    -6.68564E-03    -6.76333E-03
            3077               1     51.1745E-03     51.7319E-03    -7.12928E-03    -7.16478E-03
            3078               1     45.1758E-03     46.3603E-03    -6.89842E-03    -6.76358E-03
            3079               1     40.3561E-03     41.0891E-03    -6.42837E-03    -6.59853E-03
            3080               1     35.0381E-03     36.0370E-03    -6.22605E-03    -6.14182E-03
            3081               1     30.2803E-03     31.0375E-03    -5.77189E-03    -5.87974E-03
            3082               1     25.4731E-03     26.2875E-03    -5.65311E-03    -5.60219E-03
            3083               1     20.8624E-03     21.5663E-03    -5.36516E-03    -5.40379E-03
            3084               1     16.6640E-03     17.2883E-03    -5.36309E-03    -5.31184E-03
            3085               1     12.6998E-03     13.2276E-03    -5.22896E-03    -5.22158E-03
            3086               1     10.2317E-03     10.4286E-03    -5.35572E-03    -5.27543E-03
            3087               1     9.45971E-03     9.31920E-03    -5.33403E-03    -5.28708E-03
            3088               1     11.3805E-03     10.8160E-03    -5.54159E-03    -5.39444E-03
            3089               1     15.1366E-03     14.3562E-03    -5.55925E-03    -5.44110E-03
            3090               1     19.0323E-03     18.1534E-03    -5.53905E-03    -5.29935E-03
            3091               1     24.7521E-03     23.5736E-03    -5.40888E-03    -5.13550E-03
            3092               1     29.0118E-03     27.6787E-03    -3.73314E-03    -3.60586E-03
            3093               1     33.3004E-03     32.3501E-03    -2.46816E-03    -2.28044E-03
            3094               1     37.8314E-03     35.9953E-03     256.686E-06     504.954E-06
            3095               1     56.5301E-03     56.8791E-03    -8.18976E-03    -8.11936E-03
            3096               1     49.4560E-03     50.5677E-03    -7.62104E-03    -7.31509E-03
            3097               1     44.4995E-03     45.2066E-03    -6.69315E-03    -6.96603E-03
            3098               1     38.9588E-03     39.9261E-03    -6.33264E-03    -6.19030E-03
            3099               1     34.1613E-03     34.9397E-03    -5.52668E-03    -5.72742E-03
            3100               1     29.2555E-03     30.1021E-03    -5.28620E-03    -5.23108E-03
            3101               1     24.5620E-03     25.3276E-03    -4.75831E-03    -4.85625E-03
            3102               1     20.0670E-03     20.8072E-03    -4.66315E-03    -4.62893E-03
            3103               1     15.5930E-03     16.2886E-03    -4.36776E-03    -4.39796E-03
            3104               1     11.8488E-03     12.3880E-03    -4.44785E-03    -4.39734E-03
            3105               1     8.59077E-03     8.95932E-03    -4.32670E-03    -4.31390E-03
            3106               1     8.06930E-03     7.87745E-03    -4.60007E-03    -4.49548E-03
            3107               1     9.89192E-03     9.39475E-03    -4.59867E-03    -4.53557E-03
            3108               1     13.5879E-03     12.8602E-03    -5.02618E-03    -4.80612E-03
            3109               1     18.6077E-03     17.7888E-03    -5.07800E-03    -4.89867E-03
            3110               1     23.1868E-03     22.3430E-03    -5.28320E-03    -4.88219E-03
            3111               1     30.9365E-03     29.6950E-03    -5.26387E-03    -4.76410E-03
            3112               1     36.1251E-03     34.2503E-03    -1.99511E-03    -1.86693E-03
            3113               1     39.2211E-03     38.9019E-03     317.058E-06     296.015E-06
            3114               1     53.4929E-03     54.4290E-03    -8.90208E-03    -8.25892E-03
            3115               1     48.2517E-03     48.8902E-03    -7.08606E-03    -7.43641E-03
            3116               1     42.4935E-03     43.3139E-03    -6.55652E-03    -6.32448E-03
            3117               1     37.6523E-03     38.3648E-03    -5.31063E-03    -5.56726E-03
            3118               1     32.7521E-03     33.5395E-03    -4.92517E-03    -4.85400E-03
            3119               1     28.0864E-03     28.8423E-03    -4.13175E-03    -4.26660E-03
            3120               1     23.5227E-03     24.2981E-03    -3.90799E-03    -3.88350E-03
            3121               1     18.9579E-03     19.7215E-03    -3.42911E-03    -3.48537E-03
            3122               1     14.7019E-03     15.4236E-03    -3.39947E-03    -3.37615E-03
            3123               1     10.4075E-03     11.0911E-03    -3.14502E-03    -3.15835E-03
            3124               1     7.27003E-03     7.68460E-03    -3.33964E-03    -3.28989E-03
            3125               1     5.67298E-03     5.64936E-03    -3.24569E-03    -3.22896E-03
            3126               1     8.10303E-03     7.54915E-03    -3.70255E-03    -3.58446E-03
            3127               1     11.9507E-03     11.3497E-03    -3.71426E-03    -3.64784E-03
            3128               1     16.6289E-03     16.0003E-03    -4.48655E-03    -4.21096E-03
            3129               1     22.5348E-03     21.9608E-03    -4.56018E-03    -4.34662E-03
            3130               1     27.9588E-03     27.4811E-03    -5.56060E-03    -4.92995E-03
            3131               1     39.6152E-03     38.7789E-03    -5.78467E-03    -4.86033E-03
            3132               1     46.1569E-03     42.6684E-03     845.057E-06     1.22392E-03
            3133               1     51.4473E-03     51.8408E-03    -7.38685E-03    -7.68390E-03
            3134               1     45.6719E-03     46.2531E-03    -6.72992E-03    -6.48933E-03
            3135               1     40.7367E-03     41.1753E-03    -5.04269E-03    -5.22130E-03
            3136               1     35.9116E-03     36.5529E-03    -4.46872E-03    -4.40162E-03
            3137               1     31.3310E-03     31.9575E-03    -3.44684E-03    -3.53660E-03
            3138               1     26.8283E-03     27.5705E-03    -3.05826E-03    -3.03994E-03
            3139               1     22.3614E-03     23.1133E-03    -2.41269E-03    -2.45290E-03
            3140               1     18.0053E-03     18.7995E-03    -2.23982E-03    -2.23169E-03
            3141               1     13.5845E-03     14.3819E-03    -1.85317E-03    -1.86830E-03
            3142               1     9.42806E-03     10.1922E-03    -1.91254E-03    -1.90004E-03
            3143               1     5.28412E-03     5.97607E-03    -1.71377E-03    -1.71654E-03
            3144               1     3.52616E-03     3.54646E-03    -2.02993E-03    -1.99950E-03
            3145               1     5.74723E-03     5.16811E-03    -1.95757E-03    -1.95071E-03
            3146               1     10.2027E-03     9.60717E-03    -2.60100E-03    -2.52324E-03
            3147               1     14.8735E-03     14.3744E-03    -2.58559E-03    -2.56008E-03
            3148               1     20.1725E-03     19.9276E-03    -3.81937E-03    -3.60979E-03
            3149               1     26.3983E-03     26.5133E-03    -3.74278E-03    -3.63660E-03
            3150               1     33.7309E-03     34.6092E-03    -6.80037E-03    -6.11923E-03
            3151               1     51.2583E-03     54.4339E-03    -5.91376E-03    -4.50509E-03
            3152               1     55.3284E-03     55.0851E-03    -2.35191E-03    -2.09641E-03
            3153               1     50.6058E-03     50.9843E-03    -4.07930E-03    -4.11867E-03
            3154               1     46.7506E-03     46.9502E-03    -6.00875E-03    -5.86932E-03
            3155               1     42.2856E-03     42.8953E-03    -7.23921E-03    -7.21728E-03
            3156               1     38.1199E-03     38.6557E-03    -8.27885E-03    -8.20177E-03
            3157               1     33.7885E-03     34.5402E-03    -9.01200E-03    -9.00091E-03
            3158               1     29.6689E-03     30.3319E-03    -9.51645E-03    -9.46778E-03
            3159               1     25.7169E-03     26.4489E-03    -9.85602E-03    -9.85054E-03
            3160               1     22.1326E-03     22.7187E-03    -9.96775E-03    -9.93225E-03
            3161               1     19.2241E-03     19.7023E-03    -9.98313E-03    -9.97628E-03
            3162               1     17.1091E-03     17.2899E-03    -9.71941E-03    -9.68950E-03
            3163               1     16.4554E-03     16.3177E-03    -9.39640E-03    -9.38981E-03
            3164               1     16.8625E-03     16.3336E-03    -8.67864E-03    -8.65898E-03
            3165               1     18.6575E-03     17.8934E-03    -7.88363E-03    -7.89739E-03
            3166               1     21.0101E-03     20.0522E-03    -6.60932E-03    -6.61860E-03
            3167               1     23.5644E-03     22.7213E-03    -5.00773E-03    -5.11479E-03
            3168               1     26.8935E-03     26.1513E-03    -3.23419E-03    -3.31442E-03
            3169               1     28.9776E-03     28.9440E-03     84.4096E-06    -369.506E-06
            3170               1     36.2031E-03     37.7108E-03     2.09579E-03     1.06958E-03
            3171               1     57.6554E-03     58.7846E-03    -1.78336E-03    -1.92426E-03
            3172               1     53.6178E-03     54.0454E-03    -3.75352E-03    -3.47295E-03
            3173               1     48.1483E-03     48.9232E-03    -5.05235E-03    -4.99135E-03
            3174               1     43.4571E-03     44.0303E-03    -6.20577E-03    -5.98070E-03
            3175               1     38.3624E-03     39.1117E-03    -6.96602E-03    -6.93098E-03
            3176               1     33.5616E-03     34.2020E-03    -7.59579E-03    -7.43872E-03
            3177               1     28.7398E-03     29.5088E-03    -7.97335E-03    -7.96228E-03
            3178               1     24.2587E-03     24.8774E-03    -8.25040E-03    -8.14023E-03
            3179               1     20.0871E-03     20.7438E-03    -8.35901E-03    -8.34732E-03
            3180               1     16.6799E-03     17.0570E-03    -8.33563E-03    -8.24851E-03
            3181               1     14.4978E-03     14.6858E-03    -8.20499E-03    -8.18767E-03
            3182               1     14.0075E-03     13.7197E-03    -7.84775E-03    -7.77819E-03
            3183               1     15.6147E-03     15.0557E-03    -7.43031E-03    -7.42707E-03
            3184               1     18.3746E-03     17.5731E-03    -6.60127E-03    -6.58601E-03
            3185               1     21.9443E-03     21.1248E-03    -5.73754E-03    -5.82797E-03
            3186               1     26.2609E-03     25.3454E-03    -4.30289E-03    -4.43376E-03
            3187               1     29.4046E-03     28.7213E-03    -2.79246E-03    -3.18236E-03
            3188               1     35.8858E-03     34.8705E-03    -799.860E-06    -1.44317E-03
            3189               1     37.6855E-03     34.6649E-03    -2.18333E-03    -2.58381E-03
            3190               1     61.6064E-03     62.2506E-03    -2.45931E-03    -2.64159E-03
            3191               1     55.1593E-03     56.3514E-03    -4.03127E-03    -3.90541E-03
            3192               1     50.0227E-03     50.8129E-03    -4.84977E-03    -4.64700E-03
            3193               1     44.2530E-03     45.1299E-03    -5.61912E-03    -5.56662E-03
            3194               1     38.8744E-03     39.6082E-03    -6.15902E-03    -5.93764E-03
            3195               1     33.4216E-03     34.2284E-03    -6.48815E-03    -6.47696E-03
            3196               1     28.2439E-03     28.9098E-03    -6.79877E-03    -6.63072E-03
            3197               1     23.1584E-03     23.9039E-03    -6.91484E-03    -6.90599E-03
            3198               1     18.6049E-03     19.1358E-03    -7.03072E-03    -6.90141E-03
            3199               1     14.6796E-03     15.1776E-03    -7.00719E-03    -6.98821E-03
            3200               1     12.3497E-03     12.3885E-03    -6.92505E-03    -6.81700E-03
            3201               1     12.4382E-03     12.1806E-03    -6.77012E-03    -6.74995E-03
            3202               1     14.7437E-03     14.0906E-03    -6.39864E-03    -6.32409E-03
            3203               1     18.8056E-03     18.0355E-03    -6.07934E-03    -6.09425E-03
            3204               1     23.3304E-03     22.4287E-03    -5.12385E-03    -5.17378E-03
            3205               1     27.9069E-03     27.0073E-03    -4.58220E-03    -4.73157E-03
            3206               1     33.4513E-03     32.1686E-03    -2.81589E-03    -3.15914E-03
            3207               1     36.7180E-03     34.9535E-03    -3.19194E-03    -3.32544E-03
            3208               1     37.5308E-03     36.4944E-03    -1.21840E-03    -1.16679E-03
            3209               1     62.8164E-03     63.9107E-03    -4.57682E-03    -4.12734E-03
            3210               1     56.9697E-03     58.0170E-03    -4.42437E-03    -4.52817E-03
            3211               1     50.8145E-03     51.8281E-03    -5.22119E-03    -5.14519E-03
            3212               1     44.8557E-03     45.7761E-03    -5.35388E-03    -5.16437E-03
            3213               1     39.0103E-03     39.8947E-03    -5.53580E-03    -5.55041E-03
            3214               1     33.3268E-03     34.0813E-03    -5.70318E-03    -5.51280E-03
            3215               1     27.7110E-03     28.5069E-03    -5.71908E-03    -5.72955E-03
            3216               1     22.4137E-03     23.0470E-03    -5.83938E-03    -5.68594E-03
            3217               1     17.3184E-03     17.9906E-03    -5.81347E-03    -5.80447E-03
            3218               1     13.1485E-03     13.5174E-03    -5.87077E-03    -5.74229E-03
            3219               1     10.5164E-03     10.6983E-03    -5.83398E-03    -5.81229E-03
            3220               1     10.9385E-03     10.5285E-03    -5.79572E-03    -5.68243E-03
            3221               1     14.2797E-03     13.6800E-03    -5.76991E-03    -5.74735E-03
            3222               1     18.6759E-03     17.8844E-03    -5.45620E-03    -5.38265E-03
            3223               1     24.3070E-03     23.3662E-03    -5.48622E-03    -5.46678E-03
            3224               1     29.4992E-03     28.3753E-03    -4.23648E-03    -4.35055E-03
            3225               1     34.5229E-03     33.1753E-03    -4.40298E-03    -4.37710E-03
            3226               1     37.9479E-03     36.4691E-03    -2.14006E-03    -2.23530E-03
            3227               1     39.9424E-03     38.2815E-03    -715.260E-06    -1.04742E-03
            3228               1     63.2744E-03     64.5795E-03    -5.21895E-03    -5.62376E-03
            3229               1     57.5094E-03     58.3252E-03    -5.92360E-03    -5.75144E-03
            3230               1     50.7349E-03     51.8748E-03    -5.33793E-03    -5.26462E-03
            3231               1     44.8234E-03     45.7521E-03    -5.22093E-03    -5.28870E-03
            3232               1     38.7456E-03     39.6099E-03    -5.04959E-03    -4.88778E-03
            3233               1     32.9098E-03     33.7447E-03    -4.84159E-03    -4.89676E-03
            3234               1     27.2060E-03     27.9174E-03    -4.82267E-03    -4.67085E-03
            3235               1     21.5808E-03     22.3199E-03    -4.68371E-03    -4.69887E-03
            3236               1     16.3791E-03     16.9464E-03    -4.73655E-03    -4.60583E-03
            3237               1     11.6359E-03     12.1776E-03    -4.69104E-03    -4.68110E-03
            3238               1     8.83547E-03     8.88811E-03    -4.79846E-03    -4.67912E-03
            3239               1     9.45755E-03     9.17248E-03    -4.86661E-03    -4.84329E-03
            3240               1     13.0839E-03     12.4294E-03    -4.98263E-03    -4.85923E-03
            3241               1     18.5121E-03     17.7667E-03    -5.23037E-03    -5.17498E-03
            3242               1     23.6568E-03     22.8138E-03    -5.05314E-03    -4.92919E-03
            3243               1     30.5975E-03     29.3612E-03    -5.57668E-03    -5.37837E-03
            3244               1     35.1873E-03     33.8265E-03    -3.60512E-03    -3.64715E-03
            3245               1     39.6260E-03     38.3726E-03    -2.94564E-03    -2.91358E-03
            3246               1     42.8902E-03     40.8896E-03     101.162E-06     334.831E-06
            3247               1     63.6334E-03     64.0003E-03    -7.45714E-03    -7.23381E-03
            3248               1     55.8228E-03     57.1447E-03    -6.26457E-03    -6.18643E-03
            3249               1     50.2506E-03     51.0749E-03    -5.52703E-03    -5.67238E-03
            3250               1     43.8488E-03     44.7874E-03    -4.89532E-03    -4.78809E-03
            3251               1     38.0724E-03     38.8993E-03    -4.30804E-03    -4.42962E-03
            3252               1     32.2001E-03     32.9630E-03    -4.02488E-03    -3.90374E-03
            3253               1     26.4558E-03     27.2075E-03    -3.66836E-03    -3.72045E-03
            3254               1     20.8606E-03     21.5218E-03    -3.59183E-03    -3.47710E-03
            3255               1     15.3475E-03     16.0125E-03    -3.43876E-03    -3.44840E-03
            3256               1     10.4472E-03     10.9217E-03    -3.52809E-03    -3.42382E-03
            3257               1     6.84956E-03     7.12976E-03    -3.56422E-03    -3.55529E-03
            3258               1     7.53952E-03     7.12955E-03    -3.82130E-03    -3.71169E-03
            3259               1     11.7474E-03     11.2219E-03    -4.07548E-03    -4.04429E-03
            3260               1     16.8257E-03     16.1685E-03    -4.47269E-03    -4.30974E-03
            3261               1     23.2744E-03     22.5065E-03    -5.02204E-03    -4.89029E-03
            3262               1     28.4230E-03     27.6673E-03    -5.18230E-03    -4.87084E-03
            3263               1     37.2595E-03     35.8852E-03    -5.82587E-03    -5.36955E-03
            3264               1     42.1164E-03     40.0758E-03    -2.10097E-03    -2.06062E-03
            3265               1     44.7911E-03     44.2921E-03     255.918E-06     52.4522E-06
            3266               1     59.9783E-03     61.1551E-03    -8.07249E-03    -7.64227E-03
            3267               1     54.6773E-03     55.2806E-03    -6.19971E-03    -6.47205E-03
            3268               1     48.1685E-03     49.0574E-03    -5.20393E-03    -5.10100E-03
            3269               1     42.6685E-03     43.3726E-03    -4.04765E-03    -4.22779E-03
            3270               1     36.8375E-03     37.5975E-03    -3.43076E-03    -3.35741E-03
            3271               1     31.2478E-03     31.9538E-03    -2.76745E-03    -2.85119E-03
            3272               1     25.6223E-03     26.3225E-03    -2.46590E-03    -2.38651E-03
            3273               1     20.0438E-03     20.7151E-03    -2.13600E-03    -2.16343E-03
            3274               1     14.5826E-03     15.2095E-03    -2.09180E-03    -2.01684E-03
            3275               1     9.23576E-03     9.83099E-03    -2.02570E-03    -2.02978E-03
            3276               1     4.96849E-03     5.26935E-03    -2.22880E-03    -2.15673E-03
            3277               1     5.10505E-03     4.83223E-03    -2.40720E-03    -2.40109E-03
            3278               1     9.66253E-03     9.12407E-03    -2.89164E-03    -2.79325E-03
            3279               1     15.2449E-03     14.7470E-03    -3.32632E-03    -3.28549E-03
            3280               1     20.6759E-03     20.2013E-03    -4.16502E-03    -3.93809E-03
            3281               1     27.6491E-03     27.1423E-03    -4.79825E-03    -4.61305E-03
            3282               1     33.1753E-03     32.8023E-03    -5.90470E-03    -5.28076E-03
            3283               1     46.0741E-03     45.1387E-03    -6.58142E-03    -5.63547E-03
            3284               1     52.3305E-03     48.3481E-03     929.393E-06     1.31531E-03
            3285               1     57.8215E-03     57.9970E-03    -6.88900E-03    -7.17239E-03
            3286               1     51.6175E-03     52.2013E-03    -5.70511E-03    -5.55344E-03
            3287               1     46.3580E-03     46.7227E-03    -3.87768E-03    -4.01957E-03
            3288               1     40.7954E-03     41.4711E-03    -2.91914E-03    -2.88562E-03
            3289               1     35.5479E-03     36.1113E-03    -1.91051E-03    -1.96883E-03
            3290               1     30.1268E-03     30.8387E-03    -1.31515E-03    -1.28849E-03
            3291               1     24.8141E-03     25.4376E-03    -780.333E-06    -800.825E-06
            3292               1     19.4216E-03     20.0928E-03    -524.454E-06    -496.893E-06
            3293               1     14.0597E-03     14.6666E-03    -325.249E-06    -330.431E-06
            3294               1     8.70088E-03     9.29650E-03    -373.830E-06    -347.775E-06
            3295               1     3.39824E-03     3.95314E-03    -453.668E-06    -455.028E-06
            3296               1     2.51612E-03     2.07041E-03    -810.810E-06    -780.853E-06
            3297               1     7.71004E-03     7.23505E-03    -1.14237E-03    -1.14130E-03
            3298               1     13.1080E-03     12.7094E-03    -1.88383E-03    -1.82101E-03
            3299               1     18.7559E-03     18.4255E-03    -2.38759E-03    -2.37248E-03
            3300               1     24.4674E-03     24.4029E-03    -3.80594E-03    -3.60524E-03
            3301               1     31.3708E-03     31.6117E-03    -4.19732E-03    -4.10376E-03
            3302               1     38.9646E-03     40.0241E-03    -7.66548E-03    -6.91944E-03
            3303               1     58.2253E-03     61.7684E-03    -6.81192E-03    -5.26503E-03
            3304               1     30.2689E-03     69.1341E-03     6.91674E-03     15.7002E-03
            3305               1     16.2625E-03     11.5725E-03    -2.29906E-03     103.155E-06
            3306               1     28.4129E-03     9.94756E-03    -3.76258E-03    -3.64130E-03
            3307               1     39.3682E-03     22.8365E-03    -10.4622E-03    -9.82258E-03
            3308               1     41.6191E-03     26.3901E-03    -11.2265E-03    -11.2144E-03
            3309               1     45.7660E-03     31.3552E-03    -14.4339E-03    -14.0506E-03
            3310               1     45.4689E-03     31.8225E-03    -14.4097E-03    -14.1736E-03
            3311               1     46.9402E-03     34.0479E-03    -15.6721E-03    -15.3765E-03
            3312               1     46.5428E-03     34.1646E-03    -15.5813E-03    -15.3018E-03
            3313               1     47.1154E-03     35.3662E-03    -16.1172E-03    -15.8327E-03
            3314               1     46.9103E-03     35.6703E-03    -16.1453E-03    -15.8625E-03
            3315               1     47.1381E-03     36.4543E-03    -16.3915E-03    -16.1059E-03
            3316               1     47.1615E-03     37.0329E-03    -16.6197E-03    -16.3348E-03
            3317               1     47.2678E-03     37.6864E-03    -16.7514E-03    -16.4807E-03
            3318               1     47.6861E-03     38.7124E-03    -17.4063E-03    -17.0923E-03
            3319               1     47.8350E-03     39.5334E-03    -17.6164E-03    -17.4444E-03
            3320               1     49.0980E-03     41.4200E-03    -19.4212E-03    -18.9491E-03
            3321               1     49.1157E-03     42.8303E-03    -20.2251E-03    -20.3747E-03
            3322               1     51.5105E-03     45.8501E-03    -24.3917E-03    -23.7973E-03
            3323               1     43.4041E-03     35.8366E-03     21.6699E-03     20.1780E-03
            3324               1     14.5094E-03     9.63354E-03    -4.25274E-03    -906.060E-06
            3325               1     36.5163E-03     25.8731E-03    -10.8102E-03    -9.18932E-03
            3326               1     39.4921E-03     30.5092E-03    -11.9275E-03    -11.8072E-03
            3327               1     45.4686E-03     35.4332E-03    -15.5634E-03    -14.4724E-03
            3328               1     43.4835E-03     34.9149E-03    -15.0601E-03    -14.5165E-03
            3329               1     45.5091E-03     36.8047E-03    -16.2369E-03    -15.4436E-03
            3330               1     44.3755E-03     36.2156E-03    -15.9627E-03    -15.2475E-03
            3331               1     45.2656E-03     37.3741E-03    -16.4384E-03    -15.7021E-03
            3332               1     44.7771E-03     37.2323E-03    -16.3637E-03    -15.6312E-03
            3333               1     45.2814E-03     38.0297E-03    -16.5974E-03    -15.8519E-03
            3334               1     45.0918E-03     38.2049E-03    -16.6475E-03    -15.9263E-03
            3335               1     45.4657E-03     38.8213E-03    -16.7543E-03    -15.9996E-03
            3336               1     45.4542E-03     39.2388E-03    -16.9490E-03    -16.2294E-03
            3337               1     45.8781E-03     39.8616E-03    -16.9369E-03    -16.2359E-03
            3338               1     46.1259E-03     40.5964E-03    -17.5181E-03    -16.7102E-03
            3339               1     46.7226E-03     41.5149E-03    -17.3955E-03    -16.9913E-03
            3340               1     47.6994E-03     42.7723E-03    -19.4083E-03    -18.2669E-03
            3341               1     48.2600E-03     45.1433E-03    -20.5062E-03    -20.6754E-03
            3342               1     42.6665E-03     32.2676E-03     21.8535E-03     16.8696E-03
            3343               1     18.8184E-03     24.3192E-03     958.136E-06    -1.92334E-03
            3344               1     35.2557E-03     32.4432E-03    -12.0230E-03    -11.6341E-03
            3345               1     45.1880E-03     40.5037E-03    -17.2789E-03    -15.9374E-03
            3346               1     42.3755E-03     39.3784E-03    -17.0156E-03    -16.1673E-03
            3347               1     44.6187E-03     40.7889E-03    -17.4815E-03    -16.4293E-03
            3348               1     42.6333E-03     39.4635E-03    -16.9361E-03    -16.0061E-03
            3349               1     43.4957E-03     40.1935E-03    -16.9687E-03    -16.0017E-03
            3350               1     42.6924E-03     39.5823E-03    -16.7757E-03    -15.8174E-03
            3351               1     43.2484E-03     40.2011E-03    -16.8266E-03    -15.8567E-03
            3352               1     42.9223E-03     40.0178E-03    -16.7765E-03    -15.8283E-03
            3353               1     43.3767E-03     40.5181E-03    -16.8172E-03    -15.8309E-03
            3354               1     43.1526E-03     40.4962E-03    -16.7903E-03    -15.8581E-03
            3355               1     43.6084E-03     40.9104E-03    -16.7485E-03    -15.7551E-03
            3356               1     43.2265E-03     40.8942E-03    -16.6901E-03    -15.7558E-03
            3357               1     43.8454E-03     41.2756E-03    -16.4412E-03    -15.5195E-03
            3358               1     43.1613E-03     41.3386E-03    -16.5880E-03    -15.5817E-03
            3359               1     44.6595E-03     42.3471E-03    -16.5373E-03    -15.8848E-03
            3360               1     45.8777E-03     43.8027E-03    -19.3591E-03    -17.7534E-03
            3361               1     48.2396E-03     50.3957E-03     20.2555E-03     15.8751E-03
            3362               1     39.0646E-03     36.3304E-03     75.8367E-06    -3.21458E-03
            3363               1     40.9487E-03     44.9282E-03    -15.0715E-03    -14.8314E-03
            3364               1     40.8276E-03     42.7743E-03    -18.5632E-03    -17.2423E-03
            3365               1     42.6507E-03     44.5069E-03    -18.3379E-03    -17.5089E-03
            3366               1     41.0895E-03     43.0176E-03    -18.3088E-03    -17.2303E-03
            3367               1     41.4802E-03     43.3356E-03    -17.5841E-03    -16.6623E-03
            3368               1     40.7182E-03     42.5592E-03    -17.4359E-03    -16.4579E-03
            3369               1     41.0627E-03     42.8514E-03    -17.1095E-03    -16.1448E-03
            3370               1     40.7652E-03     42.4768E-03    -17.0428E-03    -16.0901E-03
            3371               1     41.1403E-03     42.7562E-03    -16.9229E-03    -15.9422E-03
            3372               1     40.9303E-03     42.5071E-03    -16.8353E-03    -15.9002E-03
            3373               1     41.3491E-03     42.7440E-03    -16.7770E-03    -15.7745E-03
            3374               1     40.9096E-03     42.4028E-03    -16.5558E-03    -15.6476E-03
            3375               1     41.4506E-03     42.5310E-03    -16.4658E-03    -15.4101E-03
            3376               1     40.3394E-03     41.9939E-03    -15.9730E-03    -15.1334E-03
            3377               1     41.5935E-03     42.1766E-03    -15.9735E-03    -14.7958E-03
            3378               1     40.1642E-03     42.2941E-03    -15.6932E-03    -14.9741E-03
            3379               1     45.4821E-03     45.4662E-03    -17.7414E-03    -16.2466E-03
            3380               1     82.2848E-03     71.0403E-03     18.6510E-03     16.1713E-03
            3381               1     51.5177E-03     61.6335E-03    -11.9495E-03    -9.19989E-03
            3382               1     38.4581E-03     46.9819E-03    -16.6748E-03    -15.3259E-03
            3383               1     37.7829E-03     47.1495E-03    -16.5621E-03    -16.5167E-03
            3384               1     38.8601E-03     45.9602E-03    -18.8156E-03    -17.7024E-03
            3385               1     38.3173E-03     45.9818E-03    -17.5220E-03    -16.9794E-03
            3386               1     38.6345E-03     45.6861E-03    -18.0315E-03    -17.2093E-03
            3387               1     38.5121E-03     45.6460E-03    -17.2804E-03    -16.5620E-03
            3388               1     38.6112E-03     45.4140E-03    -17.3781E-03    -16.6406E-03
            3389               1     38.7278E-03     45.3786E-03    -17.0113E-03    -16.2649E-03
            3390               1     38.7266E-03     45.1071E-03    -16.9659E-03    -16.2466E-03
            3391               1     39.0026E-03     45.1050E-03    -16.8030E-03    -16.0449E-03
            3392               1     38.7920E-03     44.7027E-03    -16.6112E-03    -15.9100E-03
            3393               1     39.2414E-03     44.7089E-03    -16.5798E-03    -15.7822E-03
            3394               1     38.5544E-03     44.0665E-03    -16.1501E-03    -15.5050E-03
            3395               1     39.5295E-03     44.0927E-03    -16.3747E-03    -15.4016E-03
            3396               1     38.1389E-03     43.5771E-03    -15.6087E-03    -15.1560E-03
            3397               1     41.5618E-03     44.8149E-03    -16.8815E-03    -15.4415E-03
            3398               1     42.2855E-03     47.7451E-03    -16.8366E-03    -16.8205E-03
            3399               1     89.1065E-03     124.309E-03    -4.50793E-03     2.92247E-03
            3400               1     43.7568E-03     65.2435E-03    -14.2441E-03    -12.1143E-03
            3401               1     33.8120E-03     52.6594E-03    -11.8527E-03    -11.8590E-03
            3402               1     35.2362E-03     49.8594E-03    -16.9400E-03    -16.3113E-03
            3403               1     33.6469E-03     48.2131E-03    -15.9635E-03    -15.9644E-03
            3404               1     36.1094E-03     48.9581E-03    -17.9522E-03    -17.5467E-03
            3405               1     35.3751E-03     48.3693E-03    -17.0325E-03    -16.7947E-03
            3406               1     36.3929E-03     48.6654E-03    -17.5935E-03    -17.2900E-03
            3407               1     36.0717E-03     48.2142E-03    -16.9826E-03    -16.7005E-03
            3408               1     36.4883E-03     48.1364E-03    -17.0825E-03    -16.8015E-03
            3409               1     36.4887E-03     47.8004E-03    -16.7496E-03    -16.4597E-03
            3410               1     36.5921E-03     47.4849E-03    -16.6375E-03    -16.3650E-03
            3411               1     36.8505E-03     47.2487E-03    -16.5179E-03    -16.2162E-03
            3412               1     36.6447E-03     46.7137E-03    -16.2208E-03    -15.9688E-03
            3413               1     37.3313E-03     46.6488E-03    -16.3978E-03    -16.0412E-03
            3414               1     36.8618E-03     46.0986E-03    -15.9382E-03    -15.7633E-03
            3415               1     39.1004E-03     46.8334E-03    -16.9487E-03    -16.3611E-03
            3416               1     39.3030E-03     47.8607E-03    -16.5221E-03    -16.6073E-03
            3417               1     46.7044E-03     52.7903E-03    -19.4087E-03    -18.5311E-03
            3418               1     74.0692E-03     74.9058E-03    -29.6149E-03    -29.6297E-03
            3419               1     74.0236E-03     74.8598E-03    -29.6149E-03    -29.6297E-03
            3420               1     73.9781E-03     74.8139E-03    -29.6149E-03    -29.6297E-03
            3421               1     73.9326E-03     74.7680E-03    -29.6149E-03    -29.6297E-03
            3422               1     73.8872E-03     74.7221E-03    -29.6149E-03    -29.6297E-03
            3423               1     73.8418E-03     74.6762E-03    -29.6149E-03    -29.6297E-03
            3424               1     73.7964E-03     74.6303E-03    -29.6149E-03    -29.6297E-03
            3425               1     73.7510E-03     74.5845E-03    -29.6149E-03    -29.6297E-03
            3426               1     73.7056E-03     74.5387E-03    -29.6149E-03    -29.6297E-03
            3427               1     73.6603E-03     74.4929E-03    -29.6149E-03    -29.6297E-03
            3428               1     73.6150E-03     74.4472E-03    -29.6149E-03    -29.6297E-03
            3429               1     73.5697E-03     74.4014E-03    -29.6149E-03    -29.6297E-03
            3430               1     73.5245E-03     74.3557E-03    -29.6149E-03    -29.6297E-03
            3431               1     73.4793E-03     74.3101E-03    -29.6149E-03    -29.6297E-03
            3432               1     73.4341E-03     74.2644E-03    -29.6149E-03    -29.6297E-03
            3433               1     73.3889E-03     74.2188E-03    -29.6149E-03    -29.6297E-03
            3434               1     73.3438E-03     74.1732E-03    -29.6149E-03    -29.6297E-03
            3435               1     73.2987E-03     74.1276E-03    -29.6149E-03    -29.6297E-03
            3436               1     73.2536E-03     74.0821E-03    -29.6149E-03    -29.6297E-03
            3437               1     6.61321E-03     7.65625E-03    -3.43293E-03    -3.35119E-03
            3438               1     10.2884E-03     9.33256E-03    -5.61128E-03    -5.25670E-03
            3439               1     4.58157E-03     5.19790E-03    -2.63657E-03    -2.90856E-03
            3440               1     10.5593E-03     10.4531E-03    -5.79732E-03    -5.74537E-03
            3441               1     5.81373E-03     5.57045E-03    -2.30258E-03    -2.44763E-03
            3442               1     10.0500E-03     10.5300E-03    -5.10141E-03    -5.31172E-03
            3443               1     7.96864E-03     8.54355E-03    -2.36249E-03    -2.43292E-03
            3444               1     11.3889E-03     11.5829E-03    -5.00465E-03    -5.22189E-03
            3445               1     11.5466E-03     11.0681E-03    -2.51928E-03    -2.57975E-03
            3446               1     12.9227E-03     13.3583E-03    -5.30054E-03    -5.39534E-03
            3447               1     14.0526E-03     15.1656E-03    -3.02846E-03    -3.04555E-03
            3448               1     15.1957E-03     15.4004E-03    -5.68382E-03    -5.98205E-03
            3449               1     18.9989E-03     17.7805E-03    -3.95401E-03    -4.17270E-03
            3450               1     17.7416E-03     17.8230E-03    -7.10469E-03    -6.96352E-03
            3451               1     21.4971E-03     23.7544E-03    -5.38150E-03    -5.00114E-03
            3452               1     16.7249E-03     17.5120E-03    -7.18269E-03    -6.67405E-03
            3453               1     14.8878E-03     13.9873E-03    -956.222E-06    -1.20832E-03
            3454               1     18.7971E-03     17.6376E-03    -3.14073E-03    -3.02409E-03
            3455               1     17.9378E-03     18.0386E-03    -962.896E-06    -1.25448E-03
            3456               1     20.4259E-03     20.4462E-03    -3.56963E-03    -3.59318E-03
            3457               1     21.4841E-03     21.6634E-03    -1.19696E-03    -1.46121E-03
            3458               1     22.1984E-03     22.5853E-03    -3.60913E-03    -3.72281E-03
            3459               1     24.2078E-03     24.4610E-03    -1.64578E-03    -1.74612E-03
            3460               1     24.4887E-03     24.8173E-03    -3.75748E-03    -3.99240E-03
            3461               1     27.0715E-03     27.0461E-03    -1.92960E-03    -2.02647E-03
            3462               1     26.2641E-03     26.7392E-03    -4.21862E-03    -4.22002E-03
            3463               1     29.1712E-03     29.8637E-03    -2.42501E-03    -2.38085E-03
            3464               1     28.3968E-03     28.6157E-03    -4.46416E-03    -4.67429E-03
            3465               1     32.3838E-03     31.8558E-03    -2.93632E-03    -2.91116E-03
            3466               1     30.1136E-03     30.7354E-03    -5.37085E-03    -5.21196E-03
            3467               1     34.0997E-03     35.7594E-03    -3.99992E-03    -3.82538E-03
            3468               1     32.2651E-03     32.4002E-03    -6.08149E-03    -6.34062E-03
            3469               1     38.5947E-03     36.6421E-03    -5.51854E-03    -5.63099E-03
            3470               1     34.0222E-03     34.2001E-03    -8.09441E-03    -7.83240E-03
            3471               1     39.6484E-03     42.2649E-03    -7.41796E-03    -6.72701E-03
            3472               1     31.4306E-03     32.6020E-03    -8.45121E-03    -7.80778E-03
            3473               1     34.2052E-03     34.4002E-03     1.31066E-03     708.743E-06
            3474               1     33.7576E-03     33.1800E-03    -908.105E-06    -1.07164E-03
            3475               1     37.8962E-03     36.9224E-03     443.009E-06     137.106E-06
            3476               1     36.9991E-03     37.2439E-03    -1.59128E-03    -1.67374E-03
            3477               1     40.2638E-03     41.3535E-03    -443.085E-06    -763.263E-06
            3478               1     39.3753E-03     39.6417E-03    -2.41477E-03    -2.54464E-03
            3479               1     43.3054E-03     43.0150E-03    -1.35259E-03    -1.54807E-03
            3480               1     41.1649E-03     41.9935E-03    -2.94431E-03    -3.12810E-03
            3481               1     44.8298E-03     45.6736E-03    -1.78515E-03    -1.84172E-03
            3482               1     43.2818E-03     43.5295E-03    -3.56181E-03    -3.69576E-03
            3483               1     47.5958E-03     47.3870E-03    -2.37783E-03    -2.41197E-03
            3484               1     44.4652E-03     45.3114E-03    -4.13469E-03    -4.09114E-03
            3485               1     48.6888E-03     49.8216E-03    -3.04312E-03    -2.93764E-03
            3486               1     46.4454E-03     46.6296E-03    -4.66841E-03    -4.76727E-03
            3487               1     51.6797E-03     50.9349E-03    -3.76141E-03    -3.63965E-03
            3488               1     47.4568E-03     48.4409E-03    -5.80400E-03    -5.51784E-03
            3489               1     52.4022E-03     54.6058E-03    -5.22728E-03    -4.89655E-03
            3490               1     49.2085E-03     49.3344E-03    -6.78928E-03    -6.98176E-03
            3491               1     56.4636E-03     53.8836E-03    -7.20800E-03    -7.20937E-03
            3492               1     50.0857E-03     50.3603E-03    -9.20613E-03    -8.88441E-03
            3493               1     56.2211E-03     59.0673E-03    -9.47702E-03    -8.51026E-03
            3494               1     46.1137E-03     47.2615E-03    -9.81510E-03    -9.04460E-03
            3495               1     51.9784E-03     53.2383E-03     3.02821E-03     2.09608E-03
            3496               1     47.7593E-03     47.7277E-03     817.068E-06     410.522E-06
            3497               1     56.0735E-03     54.1941E-03     1.35920E-03     1.07962E-03
            3498               1     52.5299E-03     52.9334E-03    -61.2040E-06    -249.609E-06
            3499               1     57.3685E-03     59.1877E-03    -115.359E-06    -505.824E-06
            3500               1     55.0460E-03     55.2829E-03    -1.67645E-03    -1.72667E-03
            3501               1     60.4162E-03     59.8654E-03    -1.46657E-03    -1.67505E-03
            3502               1     56.4379E-03     57.6077E-03    -2.49362E-03    -2.73702E-03
            3503               1     61.1291E-03     62.3434E-03    -2.08468E-03    -2.14405E-03
            3504               1     58.4401E-03     58.6943E-03    -3.44971E-03    -3.52710E-03
            3505               1     63.7215E-03     63.4098E-03    -2.86537E-03    -2.86747E-03
            3506               1     59.0859E-03     60.2057E-03    -4.16144E-03    -4.09598E-03
            3507               1     64.0481E-03     65.4582E-03    -3.68867E-03    -3.53837E-03
            3508               1     60.8286E-03     61.0331E-03    -4.85082E-03    -4.88765E-03
            3509               1     66.7169E-03     65.8038E-03    -4.52643E-03    -4.32465E-03
            3510               1     61.2451E-03     62.4769E-03    -6.16309E-03    -5.78667E-03
            3511               1     66.5946E-03     69.1653E-03    -6.26407E-03    -5.80740E-03
            3512               1     62.5430E-03     62.6788E-03    -7.30318E-03    -7.45183E-03
            3513               1     70.1547E-03     67.0964E-03    -8.54371E-03    -8.44860E-03
            3514               1     62.6944E-03     63.0049E-03    -9.99048E-03    -9.62991E-03
            3515               1     68.8334E-03     71.7741E-03    -11.0464E-03    -9.87077E-03
            3516               1     57.6133E-03     58.6398E-03    -10.7787E-03    -9.91958E-03
            3517               1     65.6815E-03     67.8546E-03     3.63978E-03     2.41860E-03
            3518               1     58.6468E-03     59.1873E-03     1.45395E-03     933.675E-06
            3519               1     69.8183E-03     67.4169E-03     1.18109E-03     988.714E-06
            3520               1     64.7049E-03     65.1710E-03     453.980E-06     98.1639E-06
            3521               1     70.5067E-03     72.4572E-03    -905.917E-06    -1.34144E-03
            3522               1     66.7575E-03     67.3426E-03    -2.27555E-03    -1.90250E-03
            3523               1     72.4926E-03     72.6694E-03    -3.03639E-03    -3.00604E-03
            3524               1     68.0699E-03     69.1546E-03    -3.23638E-03    -3.70915E-03
            3525               1     73.7543E-03     73.5566E-03    -4.13748E-03    -4.03521E-03
            3526               1     69.0118E-03     70.0424E-03    -5.54774E-03    -4.99935E-03
            3527               1     73.9308E-03     76.2387E-03    -6.35646E-03    -5.79806E-03
            3528               1     69.5077E-03     70.0537E-03    -6.62462E-03    -7.01684E-03
            3529               1     76.5560E-03     73.4362E-03    -8.82610E-03    -8.67234E-03
            3530               1     69.5753E-03     69.7724E-03    -9.78274E-03    -9.35149E-03
            3531               1     74.6764E-03     77.4658E-03    -11.4968E-03    -10.2089E-03
            3532               1     63.7431E-03     64.6612E-03    -10.6769E-03    -9.85704E-03
            3533               1     49.6517E-03     47.9974E-03    -25.6811E-03    -26.8036E-03
            3534               1     61.1274E-03     66.0930E-03    -34.8325E-03    -35.9985E-03
            3535               1     47.4262E-03     45.7845E-03    -24.7816E-03    -24.4711E-03
            3536               1     71.9530E-03     68.4148E-03    -41.4598E-03    -39.0360E-03
            3537               1     54.8613E-03     52.7028E-03    -27.7841E-03    -25.4888E-03
            3538               1     77.1532E-03     72.1428E-03    -41.7446E-03    -39.3336E-03
            3539               1     60.0970E-03     56.3103E-03    -26.3884E-03    -23.5886E-03
            3540               1     78.4836E-03     78.4118E-03    -39.3752E-03    -37.3769E-03
            3541               1     55.6088E-03     59.1859E-03    -19.4401E-03    -19.2344E-03
            3542               1     87.0437E-03     80.8267E-03    -35.0641E-03    -33.0111E-03
            3543               1     49.6749E-03     60.3114E-03    -18.0065E-03    -19.3553E-03
            3544               1     82.6797E-03     97.0791E-03    -25.0252E-03    -27.1579E-03
            3545               1     73.2080E-03     74.0361E-03    -29.6149E-03    -29.6297E-03
            3546               1     73.1621E-03     73.9897E-03    -29.6149E-03    -29.6297E-03
            3547               1     36.4678E-03     44.3318E-03     3.15509E-03     2.56581E-03
            3548               1     49.0289E-03     38.4929E-03     3.57782E-03     3.72499E-03
            3549               1     38.4689E-03     44.8678E-03     3.03731E-03     3.65902E-03
            3550               1     40.3287E-03     39.6955E-03     3.48712E-03     3.53136E-03
            3551               1     39.2340E-03     38.3812E-03     3.69208E-03     3.67108E-03
            3552               1     35.0469E-03     39.5855E-03     4.07207E-03     3.57793E-03
            3553               1     39.6077E-03     32.8966E-03     3.62283E-03     3.45971E-03
            3554               1     29.9673E-03     33.5068E-03     3.95880E-03     4.54400E-03
            3555               1     32.5434E-03     39.3543E-03     4.89789E-03     4.34242E-03
            3556               1     43.4719E-03     34.2395E-03     5.21410E-03     5.44355E-03
            3557               1     34.1151E-03     39.3876E-03     4.61466E-03     5.51531E-03
            3558               1     35.4166E-03     34.9641E-03     4.89488E-03     5.30045E-03
            3559               1     34.5355E-03     34.2787E-03     5.02420E-03     5.32054E-03
            3560               1     32.5495E-03     33.4103E-03     5.12231E-03     5.11762E-03
            3561               1     31.5860E-03     31.2974E-03     5.20113E-03     4.89425E-03
            3562               1     30.1010E-03     29.3702E-03     5.36011E-03     4.95182E-03
            3563               1     27.1333E-03     29.3355E-03     5.49537E-03     4.78747E-03
            3564               1     29.3645E-03     24.7658E-03     5.15441E-03     4.83813E-03
            3565               1     22.7041E-03     24.6787E-03     5.23496E-03     5.64088E-03
            3566               1     26.2090E-03     31.4067E-03     6.39070E-03     5.89277E-03
            3567               1     34.2688E-03     27.3630E-03     6.72165E-03     6.84353E-03
            3568               1     26.7216E-03     30.8151E-03     6.17370E-03     6.90082E-03
            3569               1     27.4231E-03     27.1956E-03     6.42937E-03     6.71704E-03
            3570               1     26.4465E-03     26.3187E-03     6.51910E-03     6.72980E-03
            3571               1     24.7237E-03     25.2527E-03     6.59344E-03     6.57739E-03
            3572               1     23.6312E-03     23.3816E-03     6.65841E-03     6.40335E-03
            3573               1     22.3537E-03     21.7416E-03     6.78136E-03     6.45223E-03
            3574               1     20.2621E-03     21.0255E-03     6.85341E-03     6.34778E-03
            3575               1     20.5477E-03     18.3047E-03     6.66293E-03     6.37425E-03
            3576               1     17.1524E-03     17.6884E-03     6.66146E-03     6.89712E-03
            3577               1     20.5588E-03     23.8284E-03     7.83927E-03     7.45702E-03
            3578               1     25.3406E-03     21.1092E-03     8.15889E-03     8.15953E-03
            3579               1     20.1397E-03     22.7479E-03     7.72219E-03     8.18212E-03
            3580               1     20.2919E-03     20.1947E-03     7.95769E-03     8.05687E-03
            3581               1     19.3684E-03     19.3129E-03     8.02667E-03     8.04725E-03
            3582               1     18.1555E-03     18.2827E-03     8.08193E-03     7.98621E-03
            3583               1     17.2935E-03     16.9301E-03     8.14222E-03     7.93682E-03
            3584               1     16.3902E-03     16.1669E-03     8.21170E-03     7.97935E-03
            3585               1     15.6105E-03     15.2186E-03     8.13676E-03     7.91459E-03
            3586               1     14.9552E-03     14.6953E-03     8.10717E-03     8.15269E-03
            3587               1     17.6227E-03     18.8461E-03     9.28719E-03     9.04562E-03
            3588               1     19.2706E-03     17.6412E-03     9.52739E-03     9.40358E-03
            3589               1     17.0593E-03     17.8704E-03     9.28528E-03     9.44561E-03
            3590               1     17.0042E-03     16.8810E-03     9.44531E-03     9.36612E-03
            3591               1     16.6968E-03     16.5313E-03     9.47099E-03     9.38955E-03
            3592               1     16.3792E-03     16.3732E-03     9.41922E-03     9.43423E-03
            3593               1     16.5593E-03     16.2313E-03     9.52866E-03     9.36976E-03
            3594               1     16.2926E-03     16.3939E-03     9.39472E-03     9.30458E-03
            3595               1     47.8354E-03     57.7611E-03     1.96246E-03     1.34894E-03
            3596               1     64.0063E-03     49.9684E-03     2.54278E-03     2.62258E-03
            3597               1     51.8142E-03     60.1628E-03     2.03558E-03     2.62930E-03
            3598               1     54.1779E-03     53.0107E-03     2.05635E-03     1.84416E-03
            3599               1     53.0380E-03     51.5630E-03     1.85886E-03     2.12698E-03
            3600               1     47.5924E-03     54.2788E-03     1.89555E-03     1.37786E-03
            3601               1     53.8978E-03     43.9545E-03     1.40494E-03     1.41434E-03
            3602               1     40.4799E-03     45.6703E-03     1.93615E-03     2.57731E-03
            3603               1     43.0070E-03     52.1049E-03     3.42175E-03     2.71228E-03
            3604               1     57.3832E-03     44.6206E-03     4.23688E-03     4.02076E-03
            3605               1     46.5012E-03     52.9994E-03     3.57225E-03     3.93878E-03
            3606               1     47.3612E-03     46.6090E-03     3.87975E-03     3.39560E-03
            3607               1     47.1289E-03     45.5426E-03     3.62647E-03     3.55012E-03
            3608               1     43.5309E-03     44.9605E-03     3.37240E-03     3.42952E-03
            3609               1     43.3246E-03     42.1683E-03     3.23383E-03     3.38007E-03
            3610               1     40.6153E-03     40.2149E-03     2.92760E-03     3.39703E-03
            3611               1     37.1720E-03     40.8903E-03     3.30069E-03     3.02164E-03
            3612               1     40.4721E-03     33.5608E-03     2.67957E-03     2.90688E-03
            3613               1     30.7648E-03     34.0215E-03     3.36394E-03     3.96757E-03
            3614               1     34.0319E-03     41.5244E-03     4.73602E-03     4.11701E-03
            3615               1     45.1258E-03     34.9434E-03     5.42191E-03     5.21541E-03
            3616               1     35.9927E-03     41.1169E-03     4.87435E-03     5.16891E-03
            3617               1     36.0728E-03     35.4284E-03     5.09754E-03     4.70344E-03
            3618               1     35.3728E-03     34.1417E-03     4.91787E-03     4.86988E-03
            3619               1     32.0635E-03     33.0743E-03     4.69069E-03     4.75956E-03
            3620               1     31.1961E-03     30.4785E-03     4.61597E-03     4.73832E-03
            3621               1     28.6907E-03     28.5210E-03     4.37671E-03     4.70370E-03
            3622               1     25.8260E-03     27.8381E-03     4.66536E-03     4.46618E-03
            3623               1     26.5907E-03     22.9577E-03     4.23786E-03     4.36981E-03
            3624               1     20.8601E-03     22.0395E-03     4.67920E-03     5.07738E-03
            3625               1     24.1738E-03     29.5958E-03     6.00735E-03     5.55509E-03
            3626               1     31.2756E-03     24.3509E-03     6.49522E-03     6.33225E-03
            3627               1     24.4418E-03     27.8888E-03     6.11488E-03     6.34046E-03
            3628               1     23.7145E-03     23.2879E-03     6.20316E-03     5.98735E-03
            3629               1     22.5039E-03     21.9265E-03     6.11319E-03     6.15090E-03
            3630               1     19.7795E-03     20.4209E-03     5.90328E-03     6.01342E-03
            3631               1     18.3821E-03     18.0894E-03     5.91648E-03     6.01484E-03
            3632               1     16.1238E-03     16.6064E-03     5.95098E-03     5.85583E-03
            3633               1     14.9572E-03     14.3957E-03     5.87453E-03     5.84467E-03
            3634               1     13.2028E-03     12.7814E-03     5.92848E-03     6.09511E-03
            3635               1     16.0667E-03     18.8771E-03     7.19313E-03     6.95780E-03
            3636               1     18.7980E-03     15.8120E-03     7.50397E-03     7.39676E-03
            3637               1     15.1839E-03     16.5108E-03     7.24712E-03     7.40609E-03
            3638               1     14.1698E-03     14.1648E-03     7.27472E-03     7.20828E-03
            3639               1     13.5105E-03     13.3334E-03     7.24981E-03     7.24177E-03
            3640               1     12.7045E-03     12.6885E-03     7.23199E-03     7.24887E-03
            3641               1     12.7870E-03     12.5749E-03     7.35701E-03     7.24190E-03
            3642               1     12.4783E-03     12.8565E-03     7.18755E-03     7.12224E-03
            3643               1     57.5224E-03     70.1079E-03     1.18322E-03     32.6216E-06
            3644               1     78.3085E-03     60.9101E-03     2.04443E-03     771.087E-06
            3645               1     62.2486E-03     71.1729E-03     802.385E-06     253.823E-06
            3646               1     65.1250E-03     62.5280E-03     578.911E-06     319.196E-06
            3647               1     63.9141E-03     61.1071E-03    -43.2876E-06     412.317E-06
            3648               1     58.1399E-03     65.5849E-03    -221.993E-06     418.181E-06
            3649               1     68.0440E-03     54.9544E-03    -1.40938E-03    -121.833E-06
            3650               1     50.1842E-03     57.8487E-03    -478.259E-06     708.286E-06
            3651               1     52.5241E-03     64.6929E-03     2.27799E-03     1.01913E-03
            3652               1     71.4221E-03     55.3069E-03     2.98516E-03     1.58822E-03
            3653               1     55.9859E-03     63.8270E-03     2.12932E-03     1.22376E-03
            3654               1     57.2088E-03     55.5093E-03     1.91423E-03     1.18119E-03
            3655               1     55.6001E-03     54.1231E-03     1.71980E-03     1.41676E-03
            3656               1     52.2605E-03     53.2994E-03     1.53118E-03     1.62062E-03
            3657               1     51.6303E-03     50.5897E-03     1.21249E-03     1.69828E-03
            3658               1     49.9602E-03     48.6252E-03     1.12861E-03     2.02423E-03
            3659               1     45.9833E-03     51.2817E-03     823.823E-06     1.80717E-03
            3660               1     52.7253E-03     43.1811E-03     266.204E-06     1.48992E-03
            3661               1     39.0698E-03     44.7096E-03     863.701E-06     2.01960E-03
            3662               1     41.4935E-03     51.7471E-03     3.16032E-03     2.12216E-03
            3663               1     56.4449E-03     43.2153E-03     3.76756E-03     2.62473E-03
            3664               1     43.2061E-03     49.4292E-03     3.00516E-03     2.33991E-03
            3665               1     43.5054E-03     42.1425E-03     2.89464E-03     2.34586E-03
            3666               1     41.5746E-03     40.3904E-03     2.71996E-03     2.50908E-03
            3667               1     38.2973E-03     39.0361E-03     2.61024E-03     2.69459E-03
            3668               1     36.9533E-03     36.2995E-03     2.33282E-03     2.72279E-03
            3669               1     35.0266E-03     34.1969E-03     2.28394E-03     2.99310E-03
            3670               1     31.5519E-03     34.8882E-03     2.02006E-03     2.77938E-03
            3671               1     34.4724E-03     29.0746E-03     1.67945E-03     2.54187E-03
            3672               1     25.7817E-03     28.5355E-03     2.10163E-03     2.91863E-03
            3673               1     28.1572E-03     35.8749E-03     3.98073E-03     3.26648E-03
            3674               1     38.1561E-03     28.6301E-03     4.42871E-03     3.65832E-03
            3675               1     27.8907E-03     32.0753E-03     3.80475E-03     3.46963E-03
            3676               1     27.1883E-03     26.2227E-03     3.78801E-03     3.57401E-03
            3677               1     24.9609E-03     24.3248E-03     3.63607E-03     3.61330E-03
            3678               1     22.1156E-03     22.3886E-03     3.55165E-03     3.74786E-03
            3679               1     20.0020E-03     19.7468E-03     3.31711E-03     3.76440E-03
            3680               1     17.3217E-03     18.3624E-03     3.30976E-03     3.69189E-03
            3681               1     16.0890E-03     15.2472E-03     2.99890E-03     3.49093E-03
            3682               1     12.8764E-03     12.6222E-03     3.36260E-03     3.71219E-03
            3683               1     14.9613E-03     19.6065E-03     4.77029E-03     4.40271E-03
            3684               1     19.3415E-03     14.1736E-03     4.91593E-03     4.59157E-03
            3685               1     12.9609E-03     14.7971E-03     4.58507E-03     4.58007E-03
            3686               1     11.5032E-03     11.4530E-03     4.56875E-03     4.66824E-03
            3687               1     9.88452E-03     9.93381E-03     4.48907E-03     4.68648E-03
            3688               1     8.38068E-03     8.43867E-03     4.45643E-03     4.59363E-03
            3689               1     7.82203E-03     7.86466E-03     4.47258E-03     4.47581E-03
            3690               1     7.92642E-03     8.69016E-03     4.56547E-03     4.50530E-03
            3691               1     65.7063E-03     83.8538E-03    -1.09902E-03    -3.83054E-03
            3692               1     88.6828E-03     65.9829E-03    -891.073E-06    -2.79373E-03
            3693               1     68.0397E-03     79.8815E-03    -1.76842E-03    -1.61435E-03
            3694               1     71.0562E-03     68.7552E-03    -1.56522E-03    -2.01775E-03
            3695               1     70.0604E-03     67.2249E-03    -1.07808E-03    -476.947E-06
            3696               1     64.0432E-03     74.4919E-03    -943.939E-06    -846.995E-06
            3697               1     79.1204E-03     60.5095E-03    -1.83115E-03     191.960E-06
            3698               1     58.6544E-03     71.6656E-03    -1.55659E-03     1.14812E-03
            3699               1     60.6037E-03     78.0427E-03    -875.523E-06    -3.22425E-03
            3700               1     81.5391E-03     60.9842E-03    -337.731E-06    -2.13513E-03
            3701               1     62.2217E-03     72.4444E-03    -1.59882E-03    -1.19163E-03
            3702               1     62.4407E-03     62.3258E-03    -903.819E-06    -1.44506E-03
            3703               1     61.9211E-03     60.5470E-03    -723.862E-06    -604.184E-06
            3704               1     56.7083E-03     60.5722E-03    -545.581E-06    -443.817E-06
            3705               1     57.7021E-03     56.7719E-03    -111.130E-06    -132.710E-06
            3706               1     55.2282E-03     55.0737E-03    -145.980E-06     546.407E-06
            3707               1     51.8668E-03     59.1545E-03     587.072E-06     508.850E-06
            3708               1     62.7899E-03     49.2063E-03    -733.694E-06     1.13195E-03
            3709               1     46.6025E-03     56.6904E-03    -108.059E-06     1.99204E-03
            3710               1     48.0510E-03     62.6871E-03    -158.163E-06    -2.02923E-03
            3711               1     64.6147E-03     47.7010E-03     279.727E-06    -1.08374E-03
            3712               1     48.2777E-03     56.5672E-03    -679.288E-06    -292.564E-06
            3713               1     47.6476E-03     47.6010E-03    -149.234E-06    -569.054E-06
            3714               1     46.5373E-03     45.4291E-03     52.4040E-06     107.456E-06
            3715               1     41.6325E-03     44.5091E-03     109.044E-06     193.718E-06
            3716               1     41.3455E-03     40.7743E-03     517.487E-06     471.494E-06
            3717               1     38.8131E-03     38.6912E-03     428.898E-06     955.474E-06
            3718               1     35.6169E-03     40.2857E-03     976.394E-06     1.01939E-03
            3719               1     41.7168E-03     33.4216E-03    -23.4332E-06     1.40505E-03
            3720               1     30.9107E-03     36.7658E-03     427.005E-06     1.95022E-03
            3721               1     32.1539E-03     43.0480E-03     593.925E-06    -637.991E-06
            3722               1     43.1514E-03     30.9553E-03     879.857E-06     75.7729E-06
            3723               1     30.8125E-03     36.5988E-03     346.573E-06     671.211E-06
            3724               1     29.3274E-03     29.1336E-03     637.086E-06     367.311E-06
            3725               1     27.3652E-03     26.7877E-03     898.451E-06     876.845E-06
            3726               1     23.4928E-03     24.7260E-03     780.594E-06     838.534E-06
            3727               1     21.6266E-03     20.9282E-03     1.06630E-03     1.20290E-03
            3728               1     18.5411E-03     20.3937E-03     1.05338E-03     1.36624E-03
            3729               1     19.1266E-03     16.5897E-03     675.418E-06     1.46369E-03
            3730               1     14.2259E-03     15.4119E-03     770.138E-06     1.66498E-03
            3731               1     14.9363E-03     21.7276E-03     1.24649E-03     748.896E-06
            3732               1     19.9225E-03     13.0370E-03     1.48891E-03     1.19929E-03
            3733               1     12.0584E-03     14.8669E-03     1.26109E-03     1.57146E-03
            3734               1     9.41678E-03     9.71837E-03     1.49804E-03     1.33480E-03
            3735               1     7.63781E-03     6.68396E-03     1.55491E-03     1.52912E-03
            3736               1     4.04720E-03     4.28302E-03     1.36710E-03     1.67818E-03
            3737               1     2.47969E-03     3.31325E-03     1.36144E-03     1.57376E-03
            3738               1     2.19958E-03     4.49530E-03     1.19182E-03     1.38719E-03
            3739               1     70.9159E-03     90.6161E-03    -9.14315E-03    -8.14722E-03
            3740               1     95.1383E-03     73.6234E-03    -6.87781E-03    -6.14059E-03
            3741               1     69.0338E-03     85.7266E-03    -5.08810E-03    -5.13627E-03
            3742               1     74.8943E-03     73.8719E-03    -2.81317E-03    -3.00469E-03
            3743               1     73.7056E-03     72.7425E-03    -2.83352E-03    -2.62183E-03
            3744               1     64.9269E-03     79.9221E-03    -515.659E-06    -678.636E-06
            3745               1     85.1127E-03     67.2011E-03     1.00434E-03     612.438E-06
            3746               1     62.7984E-03     78.8882E-03     3.17743E-03     2.54623E-03
            3747               1     65.6777E-03     84.2449E-03    -8.63033E-03    -7.68024E-03
            3748               1     87.8652E-03     68.0801E-03    -6.88623E-03    -5.80920E-03
            3749               1     63.9057E-03     78.4306E-03    -4.96831E-03    -5.12612E-03
            3750               1     67.1406E-03     66.8517E-03    -3.75152E-03    -3.37899E-03
            3751               1     65.4200E-03     66.7013E-03    -3.42395E-03    -3.15596E-03
            3752               1     60.4986E-03     65.3899E-03    -2.34048E-03    -2.48305E-03
            3753               1     61.3001E-03     62.6417E-03    -1.66383E-03    -1.82470E-03
            3754               1     59.2339E-03     59.6104E-03    -1.02275E-03    -1.52400E-03
            3755               1     53.5286E-03     64.3211E-03    -82.1952E-06    -113.442E-06
            3756               1     67.6313E-03     54.3576E-03     1.63233E-03     968.037E-06
            3757               1     50.4686E-03     62.7623E-03     3.05935E-03     2.58447E-03
            3758               1     52.5415E-03     68.0764E-03    -7.07242E-03    -6.29987E-03
            3759               1     70.4790E-03     54.0845E-03    -5.66449E-03    -4.77603E-03
            3760               1     50.0880E-03     61.9241E-03    -4.24579E-03    -4.40342E-03
            3761               1     51.8531E-03     51.5036E-03    -3.25051E-03    -3.04015E-03
            3762               1     49.5527E-03     50.5473E-03    -3.09971E-03    -2.87644E-03
            3763               1     44.7866E-03     48.4712E-03    -2.17129E-03    -2.38247E-03
            3764               1     44.3024E-03     45.3533E-03    -1.75808E-03    -1.86289E-03
            3765               1     41.7381E-03     42.2451E-03    -1.15587E-03    -1.61087E-03
            3766               1     36.9055E-03     43.9408E-03    -497.530E-06    -592.089E-06
            3767               1     44.8173E-03     36.7242E-03     808.172E-06     386.956E-06
            3768               1     33.6717E-03     41.1627E-03     1.81544E-03     1.53354E-03
            3769               1     35.5703E-03     47.0234E-03    -5.09237E-03    -4.55257E-03
            3770               1     47.9810E-03     36.0321E-03    -4.13008E-03    -3.51179E-03
            3771               1     32.4148E-03     40.7589E-03    -3.34150E-03    -3.52455E-03
            3772               1     32.4784E-03     31.9148E-03    -2.60648E-03    -2.65154E-03
            3773               1     29.3675E-03     30.2069E-03    -2.69201E-03    -2.55561E-03
            3774               1     25.1852E-03     27.2476E-03    -1.85847E-03    -2.20643E-03
            3775               1     23.4282E-03     23.2836E-03    -1.71968E-03    -1.84822E-03
            3776               1     18.9139E-03     22.0566E-03    -1.13894E-03    -1.39970E-03
            3777               1     20.1625E-03     17.6370E-03    -416.122E-06    -475.025E-06
            3778               1     15.4197E-03     17.5987E-03     156.359E-06     68.6351E-06
            3779               1     16.9739E-03     23.8907E-03    -3.03934E-03    -2.77320E-03
            3780               1     23.1723E-03     16.2334E-03    -2.62549E-03    -2.25024E-03
            3781               1     13.2613E-03     17.4496E-03    -2.40409E-03    -2.72367E-03
            3782               1     10.9708E-03     10.8335E-03    -2.16779E-03    -2.32884E-03
            3783               1     7.97114E-03     8.21833E-03    -2.15845E-03    -2.27320E-03
            3784               1     4.54560E-03     4.55598E-03    -1.82077E-03    -2.16641E-03
            3785               1     3.27877E-03     2.51876E-03    -1.63248E-03    -1.39529E-03
            3786               1     2.69740E-03     4.43335E-03    -1.48849E-03    -1.41012E-03
            3787               1     81.4023E-03     90.6694E-03    -18.2261E-03    -14.0167E-03
            3788               1     90.8358E-03     74.2250E-03    -14.0145E-03    -11.5552E-03
            3789               1     73.9026E-03     82.2380E-03    -5.69315E-03    -7.33100E-03
            3790               1     77.5493E-03     74.1473E-03    -6.04976E-03    -4.39255E-03
            3791               1     75.3986E-03     73.1797E-03    -2.56005E-03    -4.06674E-03
            3792               1     70.2346E-03     76.8685E-03    -2.61121E-03    -1.26788E-03
            3793               1     79.9781E-03     66.2828E-03     4.69552E-03     2.53684E-03
            3794               1     68.8901E-03     77.2110E-03     9.30918E-03     5.54562E-03
            3795               1     76.0138E-03     84.8544E-03    -17.5308E-03    -13.6802E-03
            3796               1     84.4583E-03     68.9025E-03    -13.9426E-03    -11.6949E-03
            3797               1     67.6264E-03     75.7241E-03    -6.41023E-03    -7.92806E-03
            3798               1     70.9430E-03     66.8656E-03    -7.01966E-03    -5.69200E-03
            3799               1     66.9278E-03     67.7133E-03    -5.07419E-03    -5.36278E-03
            3800               1     65.6785E-03     64.9923E-03    -4.36301E-03    -4.36937E-03
            3801               1     63.2856E-03     63.7775E-03    -3.69047E-03    -3.53287E-03
            3802               1     62.5831E-03     59.9901E-03    -2.13663E-03    -3.18055E-03
            3803               1     57.1987E-03     62.4878E-03    -2.26532E-03    -1.39303E-03
            3804               1     63.7669E-03     53.1974E-03     3.46397E-03     1.64914E-03
            3805               1     54.1939E-03     60.3543E-03     7.27631E-03     4.25489E-03
            3806               1     62.6110E-03     70.1680E-03    -15.0501E-03    -11.9732E-03
            3807               1     68.8025E-03     55.9628E-03    -12.4039E-03    -10.6369E-03
            3808               1     53.6062E-03     60.4626E-03    -6.34843E-03    -7.66391E-03
            3809               1     55.5127E-03     52.1078E-03    -6.94486E-03    -5.87312E-03
            3810               1     51.2035E-03     51.8967E-03    -5.38829E-03    -5.64108E-03
            3811               1     49.2502E-03     48.7386E-03    -4.83428E-03    -4.83441E-03
            3812               1     46.4533E-03     46.7202E-03    -4.31674E-03    -4.24787E-03
            3813               1     44.6335E-03     43.0815E-03    -3.21899E-03    -3.93163E-03
            3814               1     40.0030E-03     43.1257E-03    -3.12471E-03    -2.70099E-03
            3815               1     42.1024E-03     35.7060E-03     769.491E-06    -549.740E-06
            3816               1     34.6944E-03     38.2738E-03     3.67269E-03     1.59403E-03
            3817               1     44.9530E-03     50.7345E-03    -11.7268E-03    -9.66416E-03
            3818               1     48.3576E-03     39.1648E-03    -10.2894E-03    -9.15430E-03
            3819               1     35.6477E-03     40.8198E-03    -6.16937E-03    -7.19353E-03
            3820               1     35.9224E-03     33.4011E-03    -6.71390E-03    -5.99271E-03
            3821               1     31.4039E-03     32.0126E-03    -5.67920E-03    -5.88190E-03
            3822               1     28.7397E-03     28.4880E-03    -5.26256E-03    -5.21816E-03
            3823               1     25.5095E-03     25.2507E-03    -4.68883E-03    -5.00397E-03
            3824               1     21.9727E-03     22.7109E-03    -4.34490E-03    -4.35598E-03
            3825               1     19.1201E-03     17.5718E-03    -2.47131E-03    -3.22376E-03
            3826               1     13.8727E-03     14.7130E-03    -601.102E-06    -1.61013E-03
            3827               1     25.6759E-03     29.4235E-03    -8.23658E-03    -7.28088E-03
            3828               1     26.3408E-03     21.4278E-03    -8.13811E-03    -7.68065E-03
            3829               1     17.0985E-03     20.2530E-03    -6.15458E-03    -6.83922E-03
            3830               1     16.3009E-03     14.8618E-03    -6.66998E-03    -6.33351E-03
            3831               1     12.6680E-03     13.1750E-03    -6.23746E-03    -6.28221E-03
            3832               1     10.6312E-03     10.8093E-03    -5.73986E-03    -6.08685E-03
            3833               1     10.3705E-03     10.3425E-03    -5.81905E-03    -5.94430E-03
            3834               1     9.50422E-03     10.9868E-03    -4.83657E-03    -4.85095E-03
            3947               1     23.5105E-03     41.0809E-03    -9.12342E-03    -8.63039E-03
            3948               1     52.7987E-03     66.5613E-03    -21.4250E-03    -20.7737E-03
            3949               1     48.3369E-03     30.9192E-03    -9.58728E-03    -9.22952E-03
            3950               1     47.2506E-03     38.7764E-03    -23.3179E-03    -21.9708E-03
            3951               1     28.5597E-03     36.7930E-03    -15.4001E-03    -16.3116E-03
            3952               1     60.0351E-03     72.4845E-03    -24.1492E-03    -25.5549E-03
            3953               1     29.2351E-03     30.9326E-03    -14.5870E-03    -14.3970E-03
            3954               1     65.1147E-03     59.8326E-03    -33.5748E-03    -31.1328E-03
            3955               1     36.6827E-03     29.9074E-03    -20.8694E-03    -16.8468E-03
            3956               1     61.0229E-03     56.3566E-03    -35.0670E-03    -32.3327E-03
            3957               1     26.7882E-03     27.1596E-03    -15.4086E-03    -15.3193E-03
            3958               1     62.8771E-03     57.8092E-03    -34.8343E-03    -32.3015E-03
            3959               1     29.6210E-03     33.3487E-03    -17.0098E-03    -17.9336E-03
            3960               1     55.7962E-03     66.5205E-03    -26.2829E-03    -27.5608E-03
            3961               1     12.4251E-03     12.6017E-03     7.15616E-03     7.12949E-03
            3962               1     12.4183E-03     12.8380E-03     7.15131E-03     7.14665E-03
            3963               1     14.1425E-03     12.6406E-03     7.26191E-03     7.15633E-03
            3964               1     13.0648E-03     14.7283E-03     7.13257E-03     6.97771E-03
            3965               1     15.9544E-03     15.6904E-03     9.09831E-03     9.03639E-03
            3966               1     16.4173E-03     16.1912E-03     9.31580E-03     9.02192E-03
            3967               1     17.1609E-03     16.7909E-03     9.19019E-03     9.02105E-03
            3968               1     18.4751E-03     18.0157E-03     9.26942E-03     9.03107E-03
            3969               1     19.6910E-03     19.4953E-03     9.18013E-03     8.98104E-03
            3970               1     21.2754E-03     21.4672E-03     9.15692E-03     9.08373E-03
            3971               1     23.3866E-03     23.1222E-03     9.11262E-03     9.13962E-03
            3972               1     24.9525E-03     24.8598E-03     9.07205E-03     9.15893E-03
            3973               1     25.3964E-03     28.9005E-03     8.84733E-03     9.29856E-03
            3974               1     33.2261E-03     26.6343E-03     9.32107E-03     9.23546E-03
            3975               1     26.2924E-03     31.8797E-03     8.96790E-03     8.52501E-03
            3976               1     24.8869E-03     24.7700E-03     10.7161E-03     10.8437E-03
            3977               1     28.7469E-03     26.5285E-03     10.7346E-03     10.3196E-03
            3978               1     29.4267E-03     30.1238E-03     10.9240E-03     10.4296E-03
            3979               1     32.1478E-03     31.4636E-03     10.7672E-03     10.3592E-03
            3980               1     34.2454E-03     34.6909E-03     10.6595E-03     10.4676E-03
            3981               1     36.9228E-03     36.7638E-03     10.5502E-03     10.5425E-03
            3982               1     38.7549E-03     38.4589E-03     10.4173E-03     10.5936E-03
            3983               1     38.3645E-03     44.0260E-03     10.0090E-03     10.7777E-03
            3984               1     49.5854E-03     39.3927E-03     10.7479E-03     10.7378E-03
            3985               1     38.0688E-03     46.0997E-03     10.2233E-03     9.53763E-03
            3986               1     36.3310E-03     38.0578E-03     12.3255E-03     12.6443E-03
            3987               1     44.5614E-03     39.1152E-03     12.2251E-03     11.6578E-03
            3988               1     43.1175E-03     45.3621E-03     12.6572E-03     11.7943E-03
            3989               1     46.9230E-03     45.9815E-03     12.3462E-03     11.7470E-03
            3990               1     49.3654E-03     49.9665E-03     12.1664E-03     11.8993E-03
            3991               1     52.2395E-03     52.2520E-03     11.9928E-03     12.0263E-03
            3992               1     54.1143E-03     53.6631E-03     11.7847E-03     12.1114E-03
            3993               1     52.7442E-03     60.5275E-03     11.1944E-03     12.3536E-03
            3994               1     67.2744E-03     53.4362E-03     12.2551E-03     12.3262E-03
            3995               1     50.9787E-03     61.4145E-03     11.5289E-03     10.5495E-03
            3996               1     7.03906E-03     7.19512E-03     3.97214E-03     3.93113E-03
            3997               1     7.17695E-03     8.54781E-03     4.03394E-03     4.05903E-03
            3998               1     10.5410E-03     7.75376E-03     4.10262E-03     4.05859E-03
            3999               1     8.73784E-03     12.2663E-03     3.89467E-03     3.80131E-03
            4000               1     11.0534E-03     10.3368E-03     5.89225E-03     5.92228E-03
            4001               1     11.4092E-03     12.0036E-03     5.78764E-03     5.77234E-03
            4002               1     13.7886E-03     13.5139E-03     5.95470E-03     5.85356E-03
            4003               1     16.2171E-03     16.1975E-03     5.75785E-03     5.83900E-03
            4004               1     18.9382E-03     18.8610E-03     5.91623E-03     5.97834E-03
            4005               1     21.3389E-03     21.9597E-03     5.86504E-03     5.93681E-03
            4006               1     25.3270E-03     24.4029E-03     6.07275E-03     6.04636E-03
            4007               1     27.2445E-03     26.8386E-03     6.12932E-03     5.84769E-03
            4008               1     28.9298E-03     33.3802E-03     6.05754E-03     6.22471E-03
            4009               1     38.5635E-03     29.0505E-03     6.40367E-03     6.20893E-03
            4010               1     29.2768E-03     37.4111E-03     5.89687E-03     5.42621E-03
            4011               1     26.0119E-03     26.1237E-03     7.05942E-03     7.37535E-03
            4012               1     32.6647E-03     29.1575E-03     6.85767E-03     6.81154E-03
            4013               1     33.2044E-03     35.4441E-03     7.06599E-03     6.80280E-03
            4014               1     37.9888E-03     37.2542E-03     6.99248E-03     7.15716E-03
            4015               1     40.7330E-03     41.7725E-03     6.97262E-03     7.10912E-03
            4016               1     45.4757E-03     44.3882E-03     7.38207E-03     7.38375E-03
            4017               1     47.3830E-03     46.7385E-03     7.51057E-03     7.10263E-03
            4018               1     48.3382E-03     55.4069E-03     7.38198E-03     7.75599E-03
            4019               1     61.7364E-03     47.2504E-03     8.01162E-03     7.71372E-03
            4020               1     46.4939E-03     57.8603E-03     7.17296E-03     6.37845E-03
            4021               1     43.1242E-03     45.9680E-03     8.33533E-03     8.94064E-03
            4022               1     55.7644E-03     47.5751E-03     7.88825E-03     7.87089E-03
            4023               1     53.3396E-03     58.0482E-03     8.30290E-03     7.85852E-03
            4024               1     59.5305E-03     58.4410E-03     8.17593E-03     8.48160E-03
            4025               1     62.7203E-03     63.8231E-03     8.17677E-03     8.36477E-03
            4026               1     67.8736E-03     66.6310E-03     8.82730E-03     8.79691E-03
            4027               1     69.6375E-03     68.6186E-03     9.00296E-03     8.40194E-03
            4028               1     69.7070E-03     79.5480E-03     8.80088E-03     9.37466E-03
            4029               1     87.0462E-03     67.1955E-03     9.73163E-03     9.31098E-03
            4030               1     65.3746E-03     80.1815E-03     8.52292E-03     7.33898E-03
            4031               1     2.51110E-03     2.00828E-03     616.719E-06     692.149E-06
            4032               1     2.35499E-03     5.50435E-03     540.020E-06     496.588E-06
            4033               1     9.38509E-03     4.64479E-03     656.321E-06     551.319E-06
            4034               1     6.38640E-03     11.4401E-03     661.222E-06     656.903E-06
            4035               1     7.23964E-03     5.30434E-03     2.02915E-03     2.28006E-03
            4036               1     8.69783E-03     9.69546E-03     1.94943E-03     2.17389E-03
            4037               1     12.3413E-03     12.6833E-03     1.85396E-03     2.26260E-03
            4038               1     16.1128E-03     15.8558E-03     2.09722E-03     2.50326E-03
            4039               1     19.2569E-03     19.2183E-03     2.04074E-03     2.30636E-03
            4040               1     22.5927E-03     23.0583E-03     2.28720E-03     2.39236E-03
            4041               1     26.9582E-03     26.0231E-03     2.24754E-03     2.19790E-03
            4042               1     30.0759E-03     29.3263E-03     2.40512E-03     2.19024E-03
            4043               1     31.7379E-03     36.9724E-03     2.39697E-03     2.04741E-03
            4044               1     44.9713E-03     33.0210E-03     3.02081E-03     2.21996E-03
            4045               1     32.7283E-03     43.2587E-03     2.60984E-03     1.92568E-03
            4046               1     29.4718E-03     30.6501E-03     2.72955E-03     3.40545E-03
            4047               1     39.0384E-03     34.3222E-03     2.06299E-03     2.98536E-03
            4048               1     38.4694E-03     41.4343E-03     2.67589E-03     3.35903E-03
            4049               1     43.4923E-03     42.6171E-03     2.70021E-03     3.44901E-03
            4050               1     46.9680E-03     47.2412E-03     3.13956E-03     3.45711E-03
            4051               1     51.6281E-03     50.4274E-03     3.27449E-03     3.17183E-03
            4052               1     55.0660E-03     53.4836E-03     3.59350E-03     3.14848E-03
            4053               1     55.8605E-03     64.0371E-03     3.65198E-03     2.95220E-03
            4054               1     74.7280E-03     56.3285E-03     4.75197E-03     3.31308E-03
            4055               1     54.5546E-03     69.6066E-03     3.95036E-03     2.68620E-03
            4056               1     51.4775E-03     56.6457E-03     3.44397E-03     4.64333E-03
            4057               1     68.9083E-03     58.3497E-03     2.35066E-03     3.93406E-03
            4058               1     63.7375E-03     69.5880E-03     3.44031E-03     4.52399E-03
            4059               1     70.1319E-03     68.6142E-03     3.49310E-03     4.61188E-03
            4060               1     73.9215E-03     73.9390E-03     4.16719E-03     4.60943E-03
            4061               1     78.9251E-03     77.3712E-03     4.39138E-03     4.16363E-03
            4062               1     82.6761E-03     80.2912E-03     4.92016E-03     4.12169E-03
            4063               1     82.5178E-03     93.9279E-03     4.99329E-03     3.88753E-03
            4064               1     107.582E-03     82.1405E-03     6.64806E-03     4.46066E-03
            4065               1     78.6518E-03     98.6906E-03     5.37499E-03     3.46194E-03
            4066               1     5.87331E-03     5.30490E-03    -2.99840E-03    -2.97835E-03
            4067               1     6.16822E-03     8.11994E-03    -3.07698E-03    -2.67977E-03
            4068               1     10.9742E-03     6.42420E-03    -2.85979E-03    -2.79391E-03
            4069               1     8.50191E-03     13.5721E-03    -2.85311E-03    -3.18073E-03
            4070               1     8.63168E-03     6.55887E-03    -1.79625E-03    -1.25167E-03
            4071               1     11.5197E-03     11.2663E-03    -2.06150E-03    -1.30935E-03
            4072               1     13.5146E-03     14.0396E-03    -1.49746E-03    -1.27609E-03
            4073               1     17.5740E-03     17.2933E-03    -1.79030E-03    -1.49995E-03
            4074               1     20.8998E-03     20.9055E-03    -1.57518E-03    -1.63278E-03
            4075               1     24.1058E-03     25.6253E-03    -1.98527E-03    -1.88984E-03
            4076               1     29.6644E-03     28.6405E-03    -1.80481E-03    -1.81447E-03
            4077               1     32.2219E-03     32.4500E-03    -2.08877E-03    -2.28062E-03
            4078               1     34.9134E-03     41.3278E-03    -2.34098E-03    -1.92166E-03
            4079               1     49.5226E-03     35.2058E-03    -1.87689E-03    -2.59899E-03
            4080               1     36.7927E-03     50.2655E-03    -2.08258E-03    -3.29337E-03
            4081               1     34.2525E-03     38.4630E-03    -1.29973E-03     409.305E-06
            4082               1     46.1047E-03     38.0813E-03    -1.55305E-03    -61.8566E-06
            4083               1     42.1557E-03     46.6715E-03    -784.772E-06    -360.754E-06
            4084               1     47.3062E-03     46.1124E-03    -796.054E-06    -548.627E-06
            4085               1     50.5473E-03     52.4601E-03    -1.36194E-03    -1.25900E-03
            4086               1     56.5600E-03     55.6239E-03    -1.08353E-03    -1.17452E-03
            4087               1     59.4536E-03     59.2908E-03    -1.63154E-03    -2.11199E-03
            4088               1     61.7210E-03     72.2894E-03    -2.07852E-03    -1.60070E-03
            4089               1     83.8874E-03     60.9562E-03    -1.12313E-03    -2.69955E-03
            4090               1     62.2393E-03     82.7686E-03    -1.59098E-03    -3.89543E-03
            4091               1     59.8972E-03     70.5289E-03    -583.261E-06     2.27930E-03
            4092               1     80.7555E-03     64.7699E-03    -1.01047E-03     1.37865E-03
            4093               1     70.2594E-03     78.7877E-03     249.535E-06     728.607E-06
            4094               1     76.5694E-03     74.9307E-03     136.418E-06     561.529E-06
            4095               1     80.1567E-03     82.5108E-03    -750.839E-06    -618.583E-06
            4096               1     86.7925E-03     85.9918E-03    -317.307E-06    -493.017E-06
            4097               1     89.8741E-03     89.3904E-03    -1.18488E-03    -1.93291E-03
            4098               1     91.7139E-03     106.879E-03    -1.81081E-03    -1.26720E-03
            4099               1     122.184E-03     89.7444E-03    -314.319E-06    -2.82023E-03
            4100               1     90.6349E-03     118.954E-03    -1.05234E-03    -4.59170E-03
            4101               1     11.0152E-03     10.5185E-03    -6.10805E-03    -6.06954E-03
            4102               1     11.3165E-03     12.8617E-03    -6.35096E-03    -6.39943E-03
            4103               1     15.7031E-03     12.5081E-03    -6.49316E-03    -6.49814E-03
            4104               1     13.8557E-03     17.2206E-03    -6.81457E-03    -6.68294E-03
            4105               1     11.7137E-03     11.0899E-03    -4.36830E-03    -4.25861E-03
            4106               1     13.6602E-03     13.7223E-03    -4.61539E-03    -4.61419E-03
            4107               1     16.4475E-03     17.5765E-03    -5.25585E-03    -5.48553E-03
            4108               1     20.1881E-03     21.0841E-03    -5.39876E-03    -5.81188E-03
            4109               1     24.2760E-03     24.7735E-03    -5.95797E-03    -6.00411E-03
            4110               1     27.0580E-03     29.1660E-03    -5.88484E-03    -6.28412E-03
            4111               1     32.6385E-03     32.9111E-03    -6.66631E-03    -6.53292E-03
            4112               1     36.0749E-03     35.7193E-03    -6.45755E-03    -6.54944E-03
            4113               1     37.1613E-03     45.9687E-03    -7.18453E-03    -7.49315E-03
            4114               1     54.7621E-03     41.0618E-03    -8.00328E-03    -7.29469E-03
            4115               1     41.1719E-03     53.9782E-03    -8.98504E-03    -8.28767E-03
            4116               1     36.3610E-03     42.9530E-03    -1.53162E-03    -1.80458E-03
            4117               1     48.4315E-03     40.8663E-03    -2.63131E-03    -2.89739E-03
            4118               1     42.7894E-03     50.1921E-03    -4.03846E-03    -4.45080E-03
            4119               1     50.8504E-03     50.5035E-03    -5.16266E-03    -5.38360E-03
            4120               1     53.4066E-03     57.1331E-03    -5.32992E-03    -6.03329E-03
            4121               1     60.0854E-03     61.6912E-03    -6.96666E-03    -6.67887E-03
            4122               1     64.8588E-03     64.0697E-03    -6.77772E-03    -6.90772E-03
            4123               1     64.2082E-03     79.4399E-03    -8.17658E-03    -8.55354E-03
            4124               1     92.1041E-03     69.7674E-03    -9.73298E-03    -8.65026E-03
            4125               1     68.5113E-03     89.5024E-03    -11.5007E-03    -10.4930E-03
            4126               1     63.5737E-03     77.5041E-03     1.57923E-03     947.708E-06
            4127               1     85.1620E-03     69.8231E-03    -332.971E-06    -957.389E-06
            4128               1     70.8086E-03     84.3220E-03    -2.64110E-03    -3.12376E-03
            4129               1     81.8514E-03     81.1703E-03    -4.50033E-03    -4.79339E-03
            4130               1     84.1608E-03     89.5565E-03    -4.71655E-03    -5.73514E-03
            4131               1     91.6404E-03     94.6788E-03    -7.30565E-03    -6.76376E-03
            4132               1     97.6049E-03     96.4372E-03    -7.09793E-03    -7.23412E-03
            4133               1     94.8442E-03     117.115E-03    -9.25643E-03    -9.65013E-03
            4134               1     133.907E-03     102.119E-03    -11.6327E-03    -10.1260E-03
            4135               1     99.2556E-03     129.225E-03    -14.2853E-03    -12.9117E-03
            4136               1     17.1738E-03     17.2780E-03    -9.90730E-03    -9.84101E-03
            4137               1     18.5332E-03     19.7925E-03    -10.6431E-03    -11.0777E-03
            4138               1     23.1752E-03     21.2531E-03    -11.8741E-03    -11.6738E-03
            4139               1     22.9617E-03     24.5349E-03    -11.5365E-03    -11.0088E-03
            4140               1     13.2519E-03     13.7251E-03    -6.78335E-03    -7.40589E-03
            4141               1     18.0364E-03     18.6758E-03    -8.58352E-03    -9.06879E-03
            4142               1     21.9668E-03     22.3118E-03    -9.42758E-03    -9.71057E-03
            4143               1     25.4608E-03     25.5813E-03    -9.85761E-03    -10.0929E-03
            4144               1     28.8087E-03     28.9090E-03    -10.1665E-03    -10.2707E-03
            4145               1     32.3012E-03     32.1428E-03    -10.4114E-03    -10.4724E-03
            4146               1     35.5828E-03     36.2409E-03    -10.7312E-03    -11.0045E-03
            4147               1     40.9047E-03     38.2387E-03    -11.7874E-03    -11.0809E-03
            4148               1     40.9762E-03     46.7754E-03    -11.0654E-03    -12.3694E-03
            4149               1     56.1660E-03     46.1039E-03    -15.6275E-03    -14.4469E-03
            4150               1     52.8210E-03     58.9468E-03    -16.7396E-03    -14.5685E-03
            4151               1     34.6179E-03     38.0060E-03    -1.36809E-03    -3.64665E-03
            4152               1     45.0704E-03     40.0478E-03    -5.00621E-03    -6.57511E-03
            4153               1     47.7819E-03     50.1039E-03    -9.15514E-03    -8.89410E-03
            4154               1     53.9355E-03     53.1085E-03    -9.58590E-03    -10.3329E-03
            4155               1     58.8685E-03     58.5627E-03    -10.7426E-03    -10.6841E-03
            4156               1     63.0495E-03     64.0298E-03    -11.5779E-03    -11.9593E-03
            4157               1     70.3388E-03     65.8796E-03    -13.4349E-03    -12.1865E-03
            4158               1     69.1497E-03     78.5055E-03    -12.5263E-03    -14.4587E-03
            4159               1     91.7382E-03     74.6399E-03    -20.3150E-03    -18.1643E-03
            4160               1     84.6315E-03     94.9313E-03    -23.0057E-03    -19.1916E-03
            4161               1     63.5196E-03     70.2455E-03     4.41430E-03     448.338E-06
            4162               1     78.4608E-03     67.0782E-03    -1.09561E-03    -3.75726E-03
            4163               1     76.8267E-03     81.9169E-03    -8.54011E-03    -7.78478E-03
            4164               1     85.3960E-03     83.2381E-03    -8.96263E-03    -10.2583E-03
            4165               1     90.6495E-03     90.3596E-03    -10.9799E-03    -10.8147E-03
            4166               1     95.4823E-03     96.7053E-03    -12.3168E-03    -12.8380E-03
            4167               1     104.311E-03     98.0462E-03    -15.0951E-03    -13.2331E-03
            4168               1     101.557E-03     114.720E-03    -13.9792E-03    -16.6297E-03
            4169               1     131.737E-03     107.041E-03    -25.3835E-03    -22.1283E-03
            4170               1     120.206E-03     135.083E-03    -29.8743E-03    -24.2196E-03
            4171               1     107.463E-03     113.438E-03    -18.8907E-03    -17.0603E-03
            4172               1     87.2009E-03     89.7833E-03    -20.0033E-03    -18.4762E-03
            4173               1     107.240E-03     102.149E-03    -14.3961E-03    -14.5782E-03
            4174               1     94.9621E-03     95.4513E-03    -18.9940E-03    -18.3649E-03
            4175               1     98.5788E-03     102.712E-03    -10.6606E-03    -10.1424E-03
            4176               1     92.5647E-03     92.9449E-03    -14.1250E-03    -14.8003E-03
            4177               1     96.2863E-03     95.0803E-03    -7.89446E-03    -7.84165E-03
            4178               1     88.9756E-03     90.6460E-03    -12.3961E-03    -11.9405E-03
            4179               1     90.4173E-03     92.0256E-03    -6.55285E-03    -6.45196E-03
            4180               1     86.0529E-03     86.8197E-03    -9.96775E-03    -10.5817E-03
            4181               1     86.6681E-03     87.0495E-03    -5.13750E-03    -5.46558E-03
            4182               1     82.2880E-03     83.4503E-03    -9.32109E-03    -9.26551E-03
            4183               1     81.8982E-03     82.0469E-03    -4.21258E-03    -4.53813E-03
            4184               1     78.8197E-03     80.0200E-03    -7.67190E-03    -8.42542E-03
            4185               1     76.1577E-03     77.7352E-03    -2.48288E-03    -3.27003E-03
            4186               1     74.4240E-03     75.1292E-03    -6.94516E-03    -7.09491E-03
            4187               1     70.4395E-03     68.8565E-03    -1.04613E-03    -1.69813E-03
            4188               1     69.9667E-03     70.2506E-03    -5.48037E-03    -5.80389E-03
            4189               1     63.0410E-03     63.0215E-03     323.387E-06    -871.549E-06
            4190               1     63.8324E-03     62.2882E-03    -4.34590E-03    -4.54036E-03
            4191               1     74.6317E-03     79.0215E-03    -15.1984E-03    -13.9753E-03
            4192               1     60.1446E-03     62.0078E-03    -16.6587E-03    -15.5179E-03
            4193               1     73.4117E-03     69.8387E-03    -12.0519E-03    -12.2703E-03
            4194               1     65.1531E-03     65.4076E-03    -16.0605E-03    -15.6300E-03
            4195               1     66.0838E-03     68.9871E-03    -9.41639E-03    -9.10974E-03
            4196               1     62.4795E-03     62.7544E-03    -12.5977E-03    -13.1246E-03
            4197               1     63.5715E-03     62.6445E-03    -7.56978E-03    -7.55965E-03
            4198               1     59.2062E-03     60.2919E-03    -11.4028E-03    -11.1378E-03
            4199               1     58.5543E-03     59.7124E-03    -6.68793E-03    -6.63861E-03
            4200               1     56.5062E-03     56.9898E-03    -9.79292E-03    -10.2380E-03
            4201               1     55.2404E-03     55.3408E-03    -5.81362E-03    -6.03302E-03
            4202               1     53.2851E-03     54.0821E-03    -9.40748E-03    -9.42485E-03
            4203               1     50.9675E-03     51.2434E-03    -5.30607E-03    -5.53065E-03
            4204               1     50.4005E-03     51.1367E-03    -8.46996E-03    -8.96943E-03
            4205               1     46.3612E-03     47.0906E-03    -4.34882E-03    -4.85762E-03
            4206               1     46.8453E-03     47.3990E-03    -8.14997E-03    -8.33619E-03
            4207               1     41.1362E-03     40.6959E-03    -3.74861E-03    -4.24895E-03
            4208               1     43.5993E-03     43.7673E-03    -7.60828E-03    -7.78784E-03
            4209               1     35.6790E-03     35.0763E-03    -3.18499E-03    -3.88675E-03
            4210               1     39.9363E-03     38.3767E-03    -6.88578E-03    -6.84643E-03
            4211               1     45.3451E-03     48.2249E-03    -11.8174E-03    -11.1442E-03
            4212               1     36.7224E-03     37.7851E-03    -13.5590E-03    -12.7799E-03
            4213               1     43.3602E-03     41.2875E-03    -9.91555E-03    -10.1670E-03
            4214               1     39.1814E-03     39.2255E-03    -13.3102E-03    -13.0469E-03
            4215               1     37.4213E-03     39.1917E-03    -8.23982E-03    -8.11152E-03
            4216               1     36.3495E-03     36.5936E-03    -11.1419E-03    -11.5203E-03
            4217               1     34.8518E-03     34.2728E-03    -7.18735E-03    -7.23227E-03
            4218               1     33.5104E-03     34.0395E-03    -10.3698E-03    -10.2305E-03
            4219               1     30.7877E-03     31.5144E-03    -6.66011E-03    -6.63283E-03
            4220               1     31.1843E-03     31.4594E-03    -9.50305E-03    -9.77886E-03
            4221               1     28.1535E-03     28.1090E-03    -6.30372E-03    -6.42820E-03
            4222               1     28.7443E-03     29.1270E-03    -9.25911E-03    -9.26425E-03
            4223               1     24.7450E-03     25.0159E-03    -6.05152E-03    -6.10873E-03
            4224               1     26.6845E-03     27.0677E-03    -8.97743E-03    -9.26393E-03
            4225               1     21.8403E-03     22.0309E-03    -6.02738E-03    -6.23517E-03
            4226               1     24.6460E-03     24.9339E-03    -8.95863E-03    -9.06622E-03
            4227               1     18.6835E-03     18.7470E-03    -5.87176E-03    -6.07524E-03
            4228               1     22.6906E-03     23.1953E-03    -8.97912E-03    -9.29930E-03
            4229               1     15.3467E-03     16.0959E-03    -6.08736E-03    -6.47123E-03
            4230               1     21.6588E-03     21.6353E-03    -9.42388E-03    -9.39916E-03
            4231               1     13.4142E-03     12.8581E-03    -6.32687E-03    -6.52740E-03
            4232               1     20.5661E-03     19.2181E-03    -9.06229E-03    -8.81248E-03
            4233               1     20.1583E-03     21.0966E-03    -9.93574E-03    -9.79875E-03
            4234               1     21.1704E-03     21.0655E-03    -11.8928E-03    -11.5466E-03
            4235               1     17.8110E-03     17.5559E-03    -9.12437E-03    -9.30812E-03
            4236               1     21.4733E-03     21.8813E-03    -11.9292E-03    -12.1335E-03
            4237               1     15.7134E-03     16.2341E-03    -8.86904E-03    -9.01980E-03
            4238               1     20.5911E-03     21.1377E-03    -11.5346E-03    -11.8637E-03
            4239               1     15.6933E-03     15.7620E-03    -9.05209E-03    -9.07961E-03
            4240               1     20.2628E-03     19.5016E-03    -11.3342E-03    -11.0485E-03
            4241               1     38.1297E-03     88.3878E-03    -1.54146E-03    -1.11379E-03
            4242               1     31.5613E-03     64.7056E-03    -17.5368E-03    -16.7540E-03
            4243               1     25.7422E-03     66.9206E-03    -11.3710E-03    -10.8610E-03
            4244               1     26.2274E-03     64.5499E-03    -12.4358E-03    -11.7249E-03
            4245               1     26.1472E-03     63.6071E-03    -11.9643E-03    -11.3945E-03
            4246               1     26.4218E-03     62.3980E-03    -12.0695E-03    -11.4052E-03
            4247               1     26.6251E-03     61.2461E-03    -12.0125E-03    -11.4086E-03
            4248               1     26.8832E-03     60.0961E-03    -12.0342E-03    -11.3937E-03
            4249               1     27.1216E-03     58.9468E-03    -12.0222E-03    -11.4020E-03
            4250               1     27.3763E-03     57.8018E-03    -12.0267E-03    -11.3979E-03
            4251               1     27.6331E-03     56.6568E-03    -12.0273E-03    -11.3971E-03
            4252               1     27.8789E-03     55.5259E-03    -12.0208E-03    -11.4035E-03
            4253               1     28.1669E-03     54.3700E-03    -12.0356E-03    -11.3891E-03
            4254               1     28.3762E-03     53.2776E-03    -12.0077E-03    -11.4150E-03
            4255               1     28.7433E-03     52.0799E-03    -12.0563E-03    -11.3733E-03
            4256               1     28.8290E-03     51.0562E-03    -11.9706E-03    -11.4286E-03
            4257               1     29.4614E-03     49.8483E-03    -12.1269E-03    -11.3801E-03
            4258               1     28.8858E-03     48.5583E-03    -11.7565E-03    -11.2826E-03
            4259               1     31.5728E-03     48.8849E-03    -12.7646E-03    -11.9690E-03
            4260               1     43.0659E-03     20.5009E-03     8.91916E-03     9.17259E-03
            4261               1     73.7360E-03     32.1899E-03    -14.7624E-03    -13.9795E-03
            4262               1     63.3193E-03     22.5963E-03    -10.7449E-03    -10.1704E-03
            4263               1     64.8686E-03     26.1469E-03    -12.3291E-03    -11.6936E-03
            4264               1     63.1741E-03     25.7557E-03    -12.0916E-03    -11.4575E-03
            4265               1     62.1774E-03     26.2539E-03    -12.1866E-03    -11.5697E-03
            4266               1     61.0186E-03     26.4460E-03    -12.1818E-03    -11.5463E-03
            4267               1     59.8776E-03     26.7318E-03    -12.1817E-03    -11.5603E-03
            4268               1     58.7434E-03     26.9814E-03    -12.1852E-03    -11.5552E-03
            4269               1     57.6085E-03     27.2476E-03    -12.1840E-03    -11.5573E-03
            4270               1     56.4768E-03     27.5148E-03    -12.1828E-03    -11.5585E-03
            4271               1     55.3508E-03     27.7790E-03    -12.1877E-03    -11.5535E-03
            4272               1     54.2280E-03     28.0579E-03    -12.1774E-03    -11.5643E-03
            4273               1     53.1042E-03     28.3233E-03    -12.1954E-03    -11.5446E-03
            4274               1     52.0027E-03     28.6100E-03    -12.1692E-03    -11.5785E-03
            4275               1     50.8709E-03     28.8889E-03    -12.1982E-03    -11.5224E-03
            4276               1     49.7941E-03     29.1643E-03    -12.2068E-03    -11.6328E-03
            4277               1     48.7392E-03     29.5166E-03    -12.0349E-03    -11.3774E-03
            4278               1     47.3340E-03     29.7800E-03    -12.9683E-03    -12.2845E-03
            4279               1     59.8647E-03     97.5204E-03     1.62283E-03     7.74636E-03
            4280               1     18.0957E-03     43.6598E-03    -6.70859E-03    -4.31842E-03
            4281               1     14.3817E-03     33.5127E-03    -7.42689E-03    -7.49278E-03
            4282               1     17.3370E-03     31.1897E-03    -9.96819E-03    -9.65819E-03
            4283               1     18.7576E-03     30.5495E-03    -10.8034E-03    -10.5264E-03
            4284               1     19.2415E-03     30.2379E-03    -11.0986E-03    -10.7086E-03
            4285               1     19.0408E-03     29.5312E-03    -10.9777E-03    -10.6856E-03
            4286               1     19.0341E-03     28.9489E-03    -10.9736E-03    -10.6172E-03
            4287               1     18.7843E-03     28.1555E-03    -10.8277E-03    -10.5119E-03
            4288               1     18.7377E-03     27.5173E-03    -10.8023E-03    -10.4686E-03
            4289               1     18.6236E-03     26.7428E-03    -10.7352E-03    -10.3966E-03
            4290               1     18.5553E-03     26.1478E-03    -10.6980E-03    -10.3877E-03
            4291               1     18.5323E-03     25.3566E-03    -10.6827E-03    -10.3193E-03
            4292               1     18.4363E-03     24.8492E-03    -10.6298E-03    -10.3467E-03
            4293               1     18.5044E-03     23.9818E-03    -10.6637E-03    -10.2705E-03
            4294               1     18.5682E-03     23.7802E-03    -10.7089E-03    -10.4609E-03
            4295               1     19.2025E-03     23.1960E-03    -11.0412E-03    -10.6088E-03
            4296               1     20.6007E-03     24.6886E-03    -11.8824E-03    -11.6034E-03
            4297               1     25.3405E-03     28.5304E-03    -14.2896E-03    -13.6787E-03
            4298               1     59.6533E-03     52.1139E-03     21.2134E-03     20.9306E-03
            4299               1     28.5447E-03     36.6023E-03    -7.49456E-03    -6.37264E-03
            4300               1     19.1230E-03     27.1535E-03    -10.0480E-03    -9.29121E-03
            4301               1     22.3444E-03     27.9040E-03    -12.1737E-03    -11.4054E-03
            4302               1     21.7363E-03     26.6937E-03    -11.9748E-03    -11.0350E-03
            4303               1     21.1071E-03     26.1669E-03    -11.5600E-03    -10.8531E-03
            4304               1     20.9688E-03     25.5047E-03    -11.5133E-03    -10.5861E-03
            4305               1     20.4949E-03     24.9851E-03    -11.2373E-03    -10.4893E-03
            4306               1     20.4317E-03     24.4163E-03    -11.2528E-03    -10.3851E-03
            4307               1     20.2235E-03     23.9246E-03    -11.1576E-03    -10.3438E-03
            4308               1     20.0962E-03     23.4810E-03    -11.1328E-03    -10.3351E-03
            4309               1     20.0641E-03     22.9374E-03    -11.1466E-03    -10.2596E-03
            4310               1     19.8113E-03     22.6231E-03    -11.0440E-03    -10.3227E-03
            4311               1     19.8989E-03     21.9459E-03    -11.1291E-03    -10.1655E-03
            4312               1     19.4446E-03     21.7105E-03    -10.9137E-03    -10.2626E-03
            4313               1     19.4836E-03     20.7281E-03    -10.9700E-03    -9.95675E-03
            4314               1     18.9764E-03     20.5743E-03    -10.7495E-03    -10.0826E-03
            4315               1     18.8704E-03     19.6403E-03    -10.5966E-03    -9.68587E-03
            4316               1     22.0777E-03     22.6819E-03    -12.4318E-03    -11.3946E-03
            4317               1     40.9861E-03     25.6184E-03     22.2801E-03     12.3443E-03
            4318               1     16.3192E-03     15.4088E-03     3.62174E-03     272.632E-06
            4319               1     27.5714E-03     25.2501E-03    -13.3133E-03    -11.6361E-03
            4320               1     25.3897E-03     23.6895E-03    -12.3616E-03    -11.0981E-03
            4321               1     25.1246E-03     23.9977E-03    -12.2439E-03    -11.4024E-03
            4322               1     24.1554E-03     22.6360E-03    -11.8783E-03    -10.7611E-03
            4323               1     23.3736E-03     22.2141E-03    -11.4643E-03    -10.5979E-03
            4324               1     23.0789E-03     21.5876E-03    -11.4769E-03    -10.3947E-03
            4325               1     22.6808E-03     21.3897E-03    -11.3451E-03    -10.4090E-03
            4326               1     22.4601E-03     21.0524E-03    -11.3680E-03    -10.3667E-03
            4327               1     22.2631E-03     20.8068E-03    -11.3728E-03    -10.3513E-03
            4328               1     21.9506E-03     20.6427E-03    -11.3142E-03    -10.4025E-03
            4329               1     21.9015E-03     20.2630E-03    -11.4088E-03    -10.2940E-03
            4330               1     21.4073E-03     20.2134E-03    -11.2208E-03    -10.4033E-03
            4331               1     21.3987E-03     19.5907E-03    -11.3311E-03    -10.1317E-03
            4332               1     20.5733E-03     19.4310E-03    -10.9275E-03    -10.1564E-03
            4333               1     19.9810E-03     18.1781E-03    -10.6636E-03    -9.47896E-03
            4334               1     19.6514E-03     18.4329E-03    -10.5697E-03    -9.75120E-03
            4335               1     17.7783E-03     17.0394E-03    -9.50477E-03    -8.98066E-03
            4336               1     42.2468E-03     38.7968E-03     22.0897E-03     21.9432E-03
            4337               1     10.0901E-03     8.80848E-03    -4.73439E-03    -3.43674E-03
            4338               1     25.5907E-03     16.2455E-03    -7.75922E-03    -7.05037E-03
            4339               1     28.4308E-03     20.1252E-03    -11.2062E-03    -10.4283E-03
            4340               1     27.5047E-03     19.5555E-03    -11.1740E-03    -10.2500E-03
            4341               1     27.1592E-03     19.8832E-03    -11.2932E-03    -10.5875E-03
            4342               1     26.4984E-03     19.3295E-03    -11.3388E-03    -10.4142E-03
            4343               1     26.0033E-03     19.4889E-03    -11.3057E-03    -10.5571E-03
            4344               1     25.5978E-03     19.2646E-03    -11.3691E-03    -10.5018E-03
            4345               1     25.1972E-03     19.3180E-03    -11.3864E-03    -10.5721E-03
            4346               1     24.7897E-03     19.2543E-03    -11.3896E-03    -10.5919E-03
            4347               1     24.4799E-03     19.1657E-03    -11.4604E-03    -10.5731E-03
            4348               1     24.0034E-03     19.2242E-03    -11.3809E-03    -10.6590E-03
            4349               1     23.8004E-03     18.9871E-03    -11.5048E-03    -10.5405E-03
            4350               1     23.2359E-03     19.1314E-03    -11.3206E-03    -10.6685E-03
            4351               1     23.0744E-03     18.7067E-03    -11.4186E-03    -10.4121E-03
            4352               1     22.6620E-03     19.0486E-03    -11.2565E-03    -10.5961E-03
            4353               1     22.1414E-03     18.4637E-03    -11.1552E-03    -10.3101E-03
            4354               1     25.3751E-03     22.0626E-03    -13.1260E-03    -12.1220E-03
            4355               1     31.1306E-03     68.5181E-03     6.60005E-03     13.0557E-03
            4356               1     13.5757E-03     18.2981E-03    -1.48533E-03     840.842E-06
            4357               1     22.2212E-03     9.38591E-03    -4.84486E-03    -4.85478E-03
            4358               1     28.1021E-03     13.5606E-03    -7.78259E-03    -7.50566E-03
            4359               1     30.2595E-03     16.8569E-03    -9.97786E-03    -9.69497E-03
            4360               1     30.1479E-03     17.5877E-03    -10.4850E-03    -10.1031E-03
            4361               1     29.9517E-03     18.5514E-03    -10.9727E-03    -10.6785E-03
            4362               1     29.4095E-03     18.6213E-03    -11.0790E-03    -10.7244E-03
            4363               1     28.8579E-03     18.9140E-03    -11.2112E-03    -10.8943E-03
            4364               1     28.2998E-03     18.9392E-03    -11.2458E-03    -10.9125E-03
            4365               1     27.7090E-03     19.0452E-03    -11.3114E-03    -10.9725E-03
            4366               1     27.1568E-03     19.0950E-03    -11.3145E-03    -11.0041E-03
            4367               1     26.5783E-03     19.1119E-03    -11.3742E-03    -11.0106E-03
            4368               1     26.0822E-03     19.2293E-03    -11.3642E-03    -11.0801E-03
            4369               1     25.5859E-03     19.2261E-03    -11.4635E-03    -11.0709E-03
            4370               1     25.3631E-03     19.6930E-03    -11.5795E-03    -11.3309E-03
            4371               1     25.3042E-03     20.1178E-03    -12.0022E-03    -11.5872E-03
            4372               1     26.1501E-03     22.2589E-03    -12.9885E-03    -12.7186E-03
            4373               1     28.3869E-03     26.1507E-03    -15.5526E-03    -15.0255E-03
            4374               1     76.6577E-03     78.2836E-03    -15.1634E-03    -15.6325E-03
            4375               1     67.6327E-03     69.4513E-03    -14.8047E-03    -14.4198E-03
            4376               1     60.0242E-03     61.6984E-03    -12.6936E-03    -12.9732E-03
            4377               1     52.9512E-03     54.9089E-03    -12.1273E-03    -12.0462E-03
            4378               1     46.3096E-03     48.2870E-03    -10.9564E-03    -11.1029E-03
            4379               1     40.0179E-03     42.1376E-03    -10.4968E-03    -10.4861E-03
            4380               1     33.9199E-03     36.0465E-03    -9.81346E-03    -9.89117E-03
            4381               1     28.3233E-03     30.4099E-03    -9.58125E-03    -9.58292E-03
            4382               1     23.0804E-03     25.0304E-03    -9.24268E-03    -9.28752E-03
            4383               1     19.0914E-03     20.6252E-03    -9.29007E-03    -9.29050E-03
            4384               1     16.4405E-03     17.3095E-03    -9.22382E-03    -9.25199E-03
            4385               1     16.8005E-03     16.5911E-03    -9.59068E-03    -9.57678E-03
            4386               1     19.1221E-03     18.0264E-03    -9.71270E-03    -9.72741E-03
            4387               1     23.9479E-03     22.2627E-03    -10.5012E-03    -10.4387E-03
            4388               1     29.3514E-03     27.4035E-03    -10.6533E-03    -10.6564E-03
            4389               1     36.6530E-03     34.6596E-03    -12.2595E-03    -12.0665E-03
            4390               1     44.8519E-03     42.9986E-03    -12.1001E-03    -12.0944E-03
            4391               1     56.4470E-03     54.9584E-03    -16.3539E-03    -15.8077E-03
            4392               1     82.3835E-03     82.1179E-03    -13.8865E-03    -13.3024E-03
            4393               1     79.3742E-03     81.2420E-03    -17.8235E-03    -16.8312E-03
            4394               1     71.3799E-03     72.9846E-03    -15.5977E-03    -16.1290E-03
            4395               1     62.7110E-03     64.5741E-03    -15.0550E-03    -14.7741E-03
            4396               1     55.7343E-03     57.6053E-03    -13.5727E-03    -13.9838E-03
            4397               1     48.8646E-03     50.7256E-03    -13.1086E-03    -13.0596E-03
            4398               1     42.4591E-03     44.3948E-03    -12.2050E-03    -12.4522E-03
            4399               1     36.4786E-03     38.2868E-03    -11.9124E-03    -11.9148E-03
            4400               1     30.7697E-03     32.5868E-03    -11.4127E-03    -11.5570E-03
            4401               1     26.0025E-03     27.5180E-03    -11.3566E-03    -11.3650E-03
            4402               1     21.9841E-03     23.2524E-03    -11.1736E-03    -11.2617E-03
            4403               1     20.1292E-03     20.6774E-03    -11.3917E-03    -11.3853E-03
            4404               1     20.1007E-03     19.9912E-03    -11.4694E-03    -11.5150E-03
            4405               1     22.8216E-03     21.8963E-03    -12.0021E-03    -11.9365E-03
            4406               1     27.0520E-03     25.7016E-03    -12.2656E-03    -12.2495E-03
            4407               1     32.6046E-03     30.8821E-03    -13.1775E-03    -12.9551E-03
            4408               1     40.1223E-03     38.2495E-03    -13.4820E-03    -13.3517E-03
            4409               1     47.1706E-03     45.2498E-03    -14.6234E-03    -14.1004E-03
            4410               1     63.4277E-03     61.1837E-03    -14.8684E-03    -14.3120E-03
            4411               1     68.6765E-03     65.4839E-03    -4.76636E-03    -4.49031E-03
            4412               1     83.7889E-03     84.2711E-03    -17.0281E-03    -16.9103E-03
            4413               1     72.6426E-03     74.6764E-03    -16.4006E-03    -16.1386E-03
            4414               1     65.7176E-03     67.2498E-03    -15.5932E-03    -16.0275E-03
            4415               1     57.7897E-03     59.6157E-03    -15.1107E-03    -15.0215E-03
            4416               1     51.2197E-03     52.9715E-03    -14.2320E-03    -14.5914E-03
            4417               1     44.6754E-03     46.3098E-03    -13.8918E-03    -13.8804E-03
            4418               1     38.6052E-03     40.2768E-03    -13.3054E-03    -13.5374E-03
            4419               1     33.1700E-03     34.5741E-03    -13.1616E-03    -13.1700E-03
            4420               1     28.2519E-03     29.6084E-03    -12.8770E-03    -13.0233E-03
            4421               1     24.8335E-03     25.7036E-03    -12.9550E-03    -12.9601E-03
            4422               1     22.7691E-03     23.3056E-03    -12.9462E-03    -13.0361E-03
            4423               1     23.2003E-03     22.9870E-03    -13.2444E-03    -13.2137E-03
            4424               1     25.6272E-03     24.9596E-03    -13.4845E-03    -13.5042E-03
            4425               1     29.5430E-03     28.3294E-03    -13.9155E-03    -13.7753E-03
            4426               1     35.6430E-03     34.0970E-03    -14.3111E-03    -14.1951E-03
            4427               1     40.7908E-03     39.0572E-03    -14.3137E-03    -13.9614E-03
            4428               1     51.0800E-03     48.8653E-03    -14.5084E-03    -14.1095E-03
            4429               1     55.6724E-03     53.4359E-03    -9.43877E-03    -9.15039E-03
            4430               1     59.5374E-03     58.2004E-03    -5.41110E-03    -4.95139E-03
            4431               1     81.7810E-03     83.5175E-03    -14.1661E-03    -14.8140E-03
            4432               1     75.0340E-03     75.9272E-03    -16.0450E-03    -16.1084E-03
            4433               1     66.3462E-03     68.2995E-03    -15.7708E-03    -15.8292E-03
            4434               1     59.9146E-03     61.3500E-03    -15.5819E-03    -15.8920E-03
            4435               1     52.7426E-03     54.3182E-03    -15.2665E-03    -15.2565E-03
            4436               1     46.5002E-03     47.9735E-03    -14.8174E-03    -15.0795E-03
            4437               1     40.4646E-03     41.7426E-03    -14.6346E-03    -14.6304E-03
            4438               1     34.9611E-03     36.2441E-03    -14.3274E-03    -14.5101E-03
            4439               1     30.4281E-03     31.3577E-03    -14.3068E-03    -14.3113E-03
            4440               1     26.8465E-03     27.6749E-03    -14.2158E-03    -14.3418E-03
            4441               1     25.1917E-03     25.4619E-03    -14.3405E-03    -14.3373E-03
            4442               1     25.4570E-03     25.4227E-03    -14.4753E-03    -14.5486E-03
            4443               1     27.5595E-03     26.9447E-03    -14.6308E-03    -14.5837E-03
            4444               1     31.9453E-03     30.9648E-03    -14.9632E-03    -14.9282E-03
            4445               1     35.9618E-03     34.6785E-03    -14.6616E-03    -14.5005E-03
            4446               1     43.2145E-03     41.3858E-03    -14.8648E-03    -14.6056E-03
            4447               1     46.9358E-03     45.1565E-03    -12.0775E-03    -11.8197E-03
            4448               1     52.1961E-03     50.2610E-03    -10.0694E-03    -9.63621E-03
            4449               1     55.7837E-03     53.3607E-03    -5.41551E-03    -4.88401E-03
            4450               1     80.3196E-03     81.5016E-03    -13.4120E-03    -13.2374E-03
            4451               1     73.6154E-03     75.4901E-03    -14.3707E-03    -14.8763E-03
            4452               1     67.5549E-03     68.6470E-03    -15.6660E-03    -15.7647E-03
            4453               1     60.2617E-03     61.8279E-03    -15.6315E-03    -15.7032E-03
            4454               1     54.0959E-03     55.2959E-03    -15.7115E-03    -15.9096E-03
            4455               1     47.6456E-03     48.8055E-03    -15.6094E-03    -15.5902E-03
            4456               1     41.8478E-03     42.9465E-03    -15.4517E-03    -15.6266E-03
            4457               1     36.5550E-03     37.4040E-03    -15.4142E-03    -15.4001E-03
            4458               1     31.9868E-03     32.8384E-03    -15.3139E-03    -15.4513E-03
            4459               1     28.7297E-03     29.1936E-03    -15.3420E-03    -15.3412E-03
            4460               1     26.9678E-03     27.3330E-03    -15.3718E-03    -15.4804E-03
            4461               1     27.0441E-03     26.9222E-03    -15.3778E-03    -15.3792E-03
            4462               1     29.3563E-03     29.0135E-03    -15.5458E-03    -15.6092E-03
            4463               1     32.2570E-03     31.5352E-03    -15.2046E-03    -15.1936E-03
            4464               1     37.6283E-03     36.4506E-03    -15.3983E-03    -15.3138E-03
            4465               1     41.0306E-03     39.7500E-03    -13.7200E-03    -13.6369E-03
            4466               1     46.2142E-03     44.3171E-03    -12.9073E-03    -12.6109E-03
            4467               1     48.9204E-03     47.0108E-03    -9.45592E-03    -9.06808E-03
            4468               1     51.3952E-03     49.6253E-03    -6.29955E-03    -6.00257E-03
            4469               1     77.8425E-03     79.2797E-03    -11.4764E-03    -12.1878E-03
            4470               1     72.6192E-03     73.7510E-03    -13.9712E-03    -13.8889E-03
            4471               1     66.5274E-03     67.9573E-03    -14.6823E-03    -14.9274E-03
            4472               1     60.6742E-03     61.6007E-03    -15.6607E-03    -15.7102E-03
            4473               1     54.2986E-03     55.3117E-03    -15.8632E-03    -15.8475E-03
            4474               1     48.4976E-03     49.3258E-03    -16.1017E-03    -16.2099E-03
            4475               1     42.8213E-03     43.5121E-03    -16.1830E-03    -16.1389E-03
            4476               1     37.7463E-03     38.4438E-03    -16.2150E-03    -16.3290E-03
            4477               1     33.4580E-03     33.8940E-03    -16.2473E-03    -16.2266E-03
            4478               1     30.2235E-03     30.6932E-03    -16.2519E-03    -16.3618E-03
            4479               1     28.4288E-03     28.5552E-03    -16.1964E-03    -16.2016E-03
            4480               1     28.5231E-03     28.6207E-03    -16.2142E-03    -16.3250E-03
            4481               1     29.8376E-03     29.6014E-03    -15.8853E-03    -15.9287E-03
            4482               1     33.3064E-03     32.9106E-03    -15.8808E-03    -15.9731E-03
            4483               1     36.4134E-03     35.7665E-03    -14.7780E-03    -14.8966E-03
            4484               1     41.1674E-03     39.8935E-03    -14.5432E-03    -14.4588E-03
            4485               1     43.8303E-03     42.5643E-03    -12.1558E-03    -12.1079E-03
            4486               1     46.8750E-03     44.8267E-03    -10.5593E-03    -10.3417E-03
            4487               1     48.2761E-03     46.2999E-03    -7.21830E-03    -6.55982E-03
            4488               1     74.8951E-03     76.0915E-03    -10.9987E-03    -10.9526E-03
            4489               1     70.6164E-03     71.6651E-03    -12.6096E-03    -12.9083E-03
            4490               1     65.3521E-03     66.1488E-03    -14.4302E-03    -14.3519E-03
            4491               1     59.8426E-03     60.5727E-03    -15.2539E-03    -15.2362E-03
            4492               1     54.3126E-03     54.8287E-03    -16.0936E-03    -16.0955E-03
            4493               1     48.7449E-03     49.1969E-03    -16.4953E-03    -16.4157E-03
            4494               1     43.5811E-03     44.0130E-03    -16.8376E-03    -16.8953E-03
            4495               1     38.8249E-03     39.0963E-03    -17.0115E-03    -16.9582E-03
            4496               1     34.7906E-03     35.1452E-03    -17.1237E-03    -17.2060E-03
            4497               1     31.6908E-03     31.8222E-03    -17.1026E-03    -17.0857E-03
            4498               1     29.9479E-03     30.1810E-03    -17.0723E-03    -17.1762E-03
            4499               1     29.4319E-03     29.4346E-03    -16.7748E-03    -16.8040E-03
            4500               1     30.7828E-03     30.8702E-03    -16.5865E-03    -16.7360E-03
            4501               1     32.7522E-03     32.6408E-03    -15.7729E-03    -15.9062E-03
            4502               1     36.1743E-03     36.0098E-03    -15.3405E-03    -15.5522E-03
            4503               1     39.3776E-03     38.9283E-03    -13.6767E-03    -14.0242E-03
            4504               1     43.0775E-03     41.5666E-03    -13.2196E-03    -13.1854E-03
            4505               1     44.2558E-03     43.1566E-03    -10.5880E-03    -10.4410E-03
            4506               1     45.8707E-03     43.5273E-03    -8.08544E-03    -8.25648E-03
            4507               1     71.9799E-03     72.6078E-03    -9.61031E-03    -9.89277E-03
            4508               1     67.6770E-03     68.3174E-03    -12.1460E-03    -12.0353E-03
            4509               1     63.5977E-03     63.8221E-03    -13.8320E-03    -13.7368E-03
            4510               1     58.6518E-03     58.8259E-03    -15.3187E-03    -15.2228E-03
            4511               1     53.7650E-03     53.8529E-03    -16.2799E-03    -16.1590E-03
            4512               1     48.8943E-03     48.9853E-03    -17.0911E-03    -17.0760E-03
            4513               1     44.2152E-03     44.2283E-03    -17.5755E-03    -17.4906E-03
            4514               1     39.9816E-03     40.0941E-03    -17.9489E-03    -17.9870E-03
            4515               1     36.2661E-03     36.2510E-03    -18.0807E-03    -18.0375E-03
            4516               1     33.4405E-03     33.5749E-03    -18.1443E-03    -18.2133E-03
            4517               1     31.4601E-03     31.4601E-03    -17.9273E-03    -17.9236E-03
            4518               1     30.8906E-03     31.0764E-03    -17.6942E-03    -17.8088E-03
            4519               1     31.1544E-03     31.2455E-03    -17.0292E-03    -17.0955E-03
            4520               1     32.7896E-03     33.1240E-03    -16.4101E-03    -16.6424E-03
            4521               1     34.9543E-03     35.1845E-03    -15.1349E-03    -15.3913E-03
            4522               1     37.4441E-03     37.8748E-03    -14.0687E-03    -14.5444E-03
            4523               1     40.7377E-03     40.7971E-03    -12.0155E-03    -12.8192E-03
            4524               1     43.8471E-03     41.4447E-03    -11.8923E-03    -11.9585E-03
            4525               1     41.6751E-03     41.1105E-03    -8.93527E-03    -8.26527E-03
            4526               1     67.2944E-03     67.3956E-03    -8.83979E-03    -8.84949E-03
            4527               1     64.9823E-03     64.4302E-03    -11.7075E-03    -11.4532E-03
            4528               1     61.0464E-03     60.7259E-03    -13.8255E-03    -13.7104E-03
            4529               1     57.3204E-03     56.8645E-03    -15.5748E-03    -15.4047E-03
            4530               1     53.1386E-03     52.8236E-03    -16.9475E-03    -16.8832E-03
            4531               1     49.0547E-03     48.7206E-03    -17.9209E-03    -17.8206E-03
            4532               1     45.1216E-03     44.9257E-03    -18.6917E-03    -18.6883E-03
            4533               1     41.4098E-03     41.1708E-03    -19.1076E-03    -19.0519E-03
            4534               1     38.2525E-03     38.1723E-03    -19.4073E-03    -19.4384E-03
            4535               1     35.5160E-03     35.3832E-03    -19.3541E-03    -19.3294E-03
            4536               1     33.7360E-03     33.7889E-03    -19.2336E-03    -19.2921E-03
            4537               1     32.4965E-03     32.5288E-03    -18.6982E-03    -18.7073E-03
            4538               1     32.4078E-03     32.6992E-03    -18.0973E-03    -18.2215E-03
            4539               1     32.8243E-03     33.1506E-03    -17.0085E-03    -17.0976E-03
            4540               1     33.8294E-03     34.6255E-03    -15.7485E-03    -16.0779E-03
            4541               1     35.6001E-03     36.4710E-03    -14.0504E-03    -14.4072E-03
            4542               1     36.3657E-03     38.0586E-03    -11.9393E-03    -12.8690E-03
            4543               1     39.7519E-03     41.4760E-03    -9.32017E-03    -11.0545E-03
            4544               1     43.0075E-03     38.2288E-03    -10.0429E-03    -10.8487E-03
            4545               1     63.5026E-03     61.6487E-03    -8.84397E-03    -8.60682E-03
            4546               1     61.2131E-03     59.9939E-03    -11.7590E-03    -11.7317E-03
            4547               1     58.9796E-03     57.7758E-03    -14.4771E-03    -14.3547E-03
            4548               1     55.9615E-03     55.1493E-03    -16.5069E-03    -16.4634E-03
            4549               1     52.9042E-03     52.1512E-03    -18.1035E-03    -18.0460E-03
            4550               1     49.7137E-03     49.1843E-03    -19.3744E-03    -19.3572E-03
            4551               1     46.4969E-03     46.0055E-03    -20.1812E-03    -20.1513E-03
            4552               1     43.5871E-03     43.2513E-03    -20.8324E-03    -20.8358E-03
            4553               1     40.7391E-03     40.4384E-03    -21.0288E-03    -21.0130E-03
            4554               1     38.5509E-03     38.3898E-03    -21.1534E-03    -21.1680E-03
            4555               1     36.4909E-03     36.3880E-03    -20.7962E-03    -20.7905E-03
            4556               1     35.3234E-03     35.3845E-03    -20.3880E-03    -20.4180E-03
            4557               1     34.2745E-03     34.4282E-03    -19.4495E-03    -19.4596E-03
            4558               1     33.9734E-03     34.3995E-03    -18.3750E-03    -18.4554E-03
            4559               1     33.8234E-03     34.4178E-03    -16.8101E-03    -16.8654E-03
            4560               1     33.5120E-03     34.7961E-03    -14.7544E-03    -15.0180E-03
            4561               1     33.7725E-03     35.6497E-03    -12.5329E-03    -12.7922E-03
            4562               1     31.5333E-03     35.7601E-03    -8.57812E-03    -9.62658E-03
            4563               1     32.3171E-03     41.9507E-03    -4.58470E-03    -7.62376E-03
            4564               1     52.3994E-03     53.7823E-03    -13.5392E-03    -13.8658E-03
            4565               1     46.5434E-03     47.8533E-03    -13.6365E-03    -13.3373E-03
            4566               1     41.4369E-03     42.7395E-03    -12.3692E-03    -12.5642E-03
            4567               1     37.1417E-03     38.4937E-03    -12.1962E-03    -12.1264E-03
            4568               1     33.0189E-03     34.4062E-03    -11.5045E-03    -11.6063E-03
            4569               1     29.4600E-03     30.8233E-03    -11.3203E-03    -11.3078E-03
            4570               1     26.0039E-03     27.3359E-03    -10.9010E-03    -10.9544E-03
            4571               1     23.2212E-03     24.3984E-03    -10.8163E-03    -10.8160E-03
            4572               1     20.6941E-03     21.6998E-03    -10.5811E-03    -10.6116E-03
            4573               1     19.2421E-03     19.8964E-03    -10.6469E-03    -10.6469E-03
            4574               1     18.3092E-03     18.5944E-03    -10.5433E-03    -10.5628E-03
            4575               1     18.8998E-03     18.6877E-03    -10.7880E-03    -10.7784E-03
            4576               1     19.9532E-03     19.3344E-03    -10.7405E-03    -10.7527E-03
            4577               1     22.6185E-03     21.6201E-03    -11.2259E-03    -11.1837E-03
            4578               1     25.3816E-03     24.1611E-03    -11.0962E-03    -11.1066E-03
            4579               1     30.0779E-03     28.7020E-03    -12.1004E-03    -11.9755E-03
            4580               1     35.1871E-03     33.8235E-03    -11.6050E-03    -11.6340E-03
            4581               1     43.9420E-03     42.6610E-03    -14.5073E-03    -14.1854E-03
            4582               1     63.6320E-03     62.8406E-03    -11.8688E-03    -11.7493E-03
            4583               1     54.3976E-03     55.5291E-03    -15.5987E-03    -14.8368E-03
            4584               1     48.9521E-03     50.1706E-03    -14.2595E-03    -14.6271E-03
            4585               1     43.5340E-03     44.7313E-03    -14.1143E-03    -13.8784E-03
            4586               1     39.0931E-03     40.4435E-03    -13.2041E-03    -13.4892E-03
            4587               1     35.1054E-03     36.2923E-03    -13.0270E-03    -12.9751E-03
            4588               1     31.3258E-03     32.6108E-03    -12.4614E-03    -12.6311E-03
            4589               1     28.1601E-03     29.2314E-03    -12.3434E-03    -12.3391E-03
            4590               1     25.1509E-03     26.2096E-03    -12.0157E-03    -12.1135E-03
            4591               1     23.0527E-03     23.8134E-03    -12.0235E-03    -12.0282E-03
            4592               1     21.3236E-03     21.9147E-03    -11.8761E-03    -11.9358E-03
            4593               1     20.9138E-03     21.0878E-03    -12.0446E-03    -12.0408E-03
            4594               1     21.0568E-03     20.9417E-03    -12.0285E-03    -12.0613E-03
            4595               1     22.6300E-03     22.0874E-03    -12.3798E-03    -12.3374E-03
            4596               1     24.7194E-03     23.9318E-03    -12.4211E-03    -12.4187E-03
            4597               1     27.9274E-03     26.8341E-03    -12.9803E-03    -12.8394E-03
            4598               1     32.2926E-03     31.0612E-03    -12.9524E-03    -12.8950E-03
            4599               1     36.8732E-03     35.5244E-03    -13.5651E-03    -13.2571E-03
            4600               1     48.2676E-03     46.7050E-03    -13.3519E-03    -13.1132E-03
            4601               1     51.1237E-03     49.3795E-03    -4.99743E-03    -4.89766E-03
            4602               1     57.0440E-03     57.3088E-03    -15.1185E-03    -15.0598E-03
            4603               1     49.8052E-03     51.0608E-03    -14.9568E-03    -14.7327E-03
            4604               1     45.4805E-03     46.5620E-03    -14.5488E-03    -14.8586E-03
            4605               1     40.7259E-03     41.8564E-03    -14.3682E-03    -14.2786E-03
            4606               1     36.7870E-03     37.9706E-03    -13.8194E-03    -14.0691E-03
            4607               1     33.1474E-03     34.1252E-03    -13.6670E-03    -13.6478E-03
            4608               1     29.7767E-03     30.8118E-03    -13.2831E-03    -13.4412E-03
            4609               1     27.1025E-03     27.8614E-03    -13.2304E-03    -13.2335E-03
            4610               1     24.7328E-03     25.4581E-03    -13.0329E-03    -13.1319E-03
            4611               1     23.4474E-03     23.8284E-03    -13.1156E-03    -13.1198E-03
            4612               1     22.7105E-03     22.9379E-03    -13.0830E-03    -13.1451E-03
            4613               1     23.2466E-03     23.0821E-03    -13.2996E-03    -13.2811E-03
            4614               1     24.5091E-03     24.1362E-03    -13.3933E-03    -13.4124E-03
            4615               1     26.6011E-03     25.8850E-03    -13.6565E-03    -13.5673E-03
            4616               1     29.8993E-03     28.9658E-03    -13.7727E-03    -13.7133E-03
            4617               1     32.6884E-03     31.5647E-03    -13.6035E-03    -13.3818E-03
            4618               1     39.1543E-03     37.7168E-03    -13.4256E-03    -13.2118E-03
            4619               1     41.2387E-03     39.8929E-03    -9.14972E-03    -8.95741E-03
            4620               1     43.4980E-03     42.5327E-03    -5.30153E-03    -4.88767E-03
            4621               1     55.0057E-03     56.1984E-03    -13.1524E-03    -13.6278E-03
            4622               1     51.1902E-03     51.7329E-03    -14.7702E-03    -14.8456E-03
            4623               1     45.8995E-03     47.1279E-03    -14.7838E-03    -14.8067E-03
            4624               1     42.1574E-03     43.0934E-03    -14.7396E-03    -14.9632E-03
            4625               1     38.0218E-03     38.9645E-03    -14.6051E-03    -14.5875E-03
            4626               1     34.4879E-03     35.4089E-03    -14.3147E-03    -14.4947E-03
            4627               1     31.2893E-03     31.9983E-03    -14.2242E-03    -14.2187E-03
            4628               1     28.4464E-03     29.1765E-03    -14.0159E-03    -14.1395E-03
            4629               1     26.4052E-03     26.8544E-03    -14.0251E-03    -14.0293E-03
            4630               1     24.8716E-03     25.2806E-03    -13.9588E-03    -14.0445E-03
            4631               1     24.4255E-03     24.5120E-03    -14.0641E-03    -14.0646E-03
            4632               1     24.7617E-03     24.7314E-03    -14.1335E-03    -14.1859E-03
            4633               1     25.9131E-03     25.5695E-03    -14.2369E-03    -14.2090E-03
            4634               1     28.1970E-03     27.6521E-03    -14.3783E-03    -14.3633E-03
            4635               1     30.0814E-03     29.3233E-03    -14.0583E-03    -13.9536E-03
            4636               1     34.1172E-03     32.9885E-03    -13.9458E-03    -13.7882E-03
            4637               1     35.3970E-03     34.2999E-03    -11.5336E-03    -11.3456E-03
            4638               1     38.0881E-03     36.7664E-03    -9.42102E-03    -9.08178E-03
            4639               1     39.6025E-03     38.0561E-03    -5.11688E-03    -4.75111E-03
            4640               1     53.5710E-03     54.2963E-03    -12.6652E-03    -12.6063E-03
            4641               1     49.8625E-03     51.1277E-03    -13.6912E-03    -14.0533E-03
            4642               1     46.6451E-03     47.2825E-03    -14.7570E-03    -14.8516E-03
            4643               1     42.4208E-03     43.3826E-03    -14.8474E-03    -14.8977E-03
            4644               1     39.0004E-03     39.7105E-03    -14.9324E-03    -15.0712E-03
            4645               1     35.4234E-03     36.0690E-03    -14.8856E-03    -14.8746E-03
            4646               1     32.3261E-03     32.9500E-03    -14.7783E-03    -14.8965E-03
            4647               1     29.6846E-03     30.1052E-03    -14.7591E-03    -14.7528E-03
            4648               1     27.5255E-03     27.9677E-03    -14.6923E-03    -14.7852E-03
            4649               1     26.2036E-03     26.3964E-03    -14.7222E-03    -14.7253E-03
            4650               1     25.6134E-03     25.7913E-03    -14.7451E-03    -14.8196E-03
            4651               1     25.8439E-03     25.7666E-03    -14.7565E-03    -14.7611E-03
            4652               1     27.1139E-03     26.9512E-03    -14.8442E-03    -14.8901E-03
            4653               1     28.3984E-03     28.0271E-03    -14.5605E-03    -14.5548E-03
            4654               1     31.1521E-03     30.4860E-03    -14.5335E-03    -14.4797E-03
            4655               1     32.1995E-03     31.4681E-03    -13.0908E-03    -13.0204E-03
            4656               1     34.5365E-03     33.3179E-03    -12.0066E-03    -11.7809E-03
            4657               1     34.9424E-03     33.7244E-03    -8.85257E-03    -8.55063E-03
            4658               1     35.4711E-03     34.3374E-03    -5.66476E-03    -5.37293E-03
            4659               1     51.4309E-03     52.4179E-03    -11.4539E-03    -11.9592E-03
            4660               1     49.0473E-03     49.6739E-03    -13.4580E-03    -13.4462E-03
            4661               1     45.7879E-03     46.7197E-03    -14.1474E-03    -14.3371E-03
            4662               1     42.7593E-03     43.2244E-03    -14.8836E-03    -14.9209E-03
            4663               1     39.1829E-03     39.7487E-03    -15.0440E-03    -15.0478E-03
            4664               1     36.0937E-03     36.5163E-03    -15.2131E-03    -15.2841E-03
            4665               1     33.0896E-03     33.4187E-03    -15.2552E-03    -15.2342E-03
            4666               1     30.5580E-03     30.9063E-03    -15.2779E-03    -15.3540E-03
            4667               1     28.5584E-03     28.7352E-03    -15.2912E-03    -15.2831E-03
            4668               1     27.1933E-03     27.4221E-03    -15.3034E-03    -15.3779E-03
            4669               1     26.5326E-03     26.5747E-03    -15.2634E-03    -15.2713E-03
            4670               1     26.7879E-03     26.8599E-03    -15.2817E-03    -15.3570E-03
            4671               1     27.3787E-03     27.2884E-03    -15.0347E-03    -15.0668E-03
            4672               1     29.1195E-03     28.9553E-03    -14.9741E-03    -15.0346E-03
            4673               1     30.1478E-03     29.8725E-03    -14.0840E-03    -14.1592E-03
            4674               1     32.2188E-03     31.4785E-03    -13.5980E-03    -13.5229E-03
            4675               1     32.4047E-03     31.6856E-03    -11.4688E-03    -11.4053E-03
            4676               1     32.8799E-03     31.5676E-03    -9.54889E-03    -9.34518E-03
            4677               1     32.3893E-03     31.0440E-03    -6.22578E-03    -5.71317E-03
            4678               1     49.1729E-03     49.8906E-03    -11.2033E-03    -11.2363E-03
            4679               1     47.4657E-03     48.1797E-03    -12.6400E-03    -12.8691E-03
            4680               1     45.0848E-03     45.3978E-03    -13.9859E-03    -13.9258E-03
            4681               1     42.1321E-03     42.5286E-03    -14.5817E-03    -14.6003E-03
            4682               1     39.3109E-03     39.4784E-03    -15.1795E-03    -15.1725E-03
            4683               1     36.3088E-03     36.4855E-03    -15.4251E-03    -15.3895E-03
            4684               1     33.6978E-03     33.8560E-03    -15.6628E-03    -15.6985E-03
            4685               1     31.3177E-03     31.3892E-03    -15.7521E-03    -15.7261E-03
            4686               1     29.4616E-03     29.6093E-03    -15.8361E-03    -15.8911E-03
            4687               1     28.0839E-03     28.1114E-03    -15.8003E-03    -15.7948E-03
            4688               1     27.4557E-03     27.5830E-03    -15.7936E-03    -15.8636E-03
            4689               1     27.2375E-03     27.2576E-03    -15.5644E-03    -15.5879E-03
            4690               1     27.9712E-03     28.0808E-03    -15.4337E-03    -15.5318E-03
            4691               1     28.5999E-03     28.6352E-03    -14.8061E-03    -14.8966E-03
            4692               1     30.0759E-03     30.0845E-03    -14.3961E-03    -14.5272E-03
            4693               1     30.7645E-03     30.6833E-03    -13.0406E-03    -13.2667E-03
            4694               1     31.7192E-03     30.8385E-03    -12.1720E-03    -12.1172E-03
            4695               1     30.5450E-03     29.8789E-03    -9.64545E-03    -9.49217E-03
            4696               1     29.6411E-03     28.2080E-03    -6.78183E-03    -6.84852E-03
            4697               1     46.9783E-03     47.4287E-03    -10.4984E-03    -10.6987E-03
            4698               1     45.6389E-03     45.7842E-03    -12.3472E-03    -12.2258E-03
            4699               1     43.7720E-03     43.8275E-03    -13.5209E-03    -13.4996E-03
            4700               1     41.4903E-03     41.3742E-03    -14.5897E-03    -14.5010E-03
            4701               1     38.9418E-03     38.8769E-03    -15.2056E-03    -15.1533E-03
            4702               1     36.5553E-03     36.4572E-03    -15.7782E-03    -15.7598E-03
            4703               1     34.1659E-03     34.0647E-03    -16.0655E-03    -16.0235E-03
            4704               1     32.1667E-03     32.1418E-03    -16.3290E-03    -16.3528E-03
            4705               1     30.3871E-03     30.3094E-03    -16.3801E-03    -16.3588E-03
            4706               1     29.1805E-03     29.2265E-03    -16.4339E-03    -16.4801E-03
            4707               1     28.2494E-03     28.2411E-03    -16.2432E-03    -16.2454E-03
            4708               1     28.0784E-03     28.2179E-03    -16.0935E-03    -16.1688E-03
            4709               1     27.9856E-03     28.1018E-03    -15.5720E-03    -15.6195E-03
            4710               1     28.6404E-03     28.9356E-03    -15.1290E-03    -15.2776E-03
            4711               1     29.0483E-03     29.3449E-03    -14.1264E-03    -14.3009E-03
            4712               1     29.6748E-03     30.1117E-03    -13.2443E-03    -13.5464E-03
            4713               1     29.8646E-03     30.2353E-03    -11.5719E-03    -12.1162E-03
            4714               1     29.8046E-03     28.4065E-03    -10.5750E-03    -10.5922E-03
            4715               1     25.9917E-03     25.5300E-03    -7.43591E-03    -6.89597E-03
            4716               1     44.1037E-03     43.8183E-03    -10.0256E-03    -9.90897E-03
            4717               1     43.6439E-03     43.1287E-03    -11.9254E-03    -11.7994E-03
            4718               1     42.2514E-03     41.7661E-03    -13.4684E-03    -13.3445E-03
            4719               1     40.5716E-03     40.1324E-03    -14.6096E-03    -14.5292E-03
            4720               1     38.7250E-03     38.3302E-03    -15.5932E-03    -15.5353E-03
            4721               1     36.7311E-03     36.3940E-03    -16.2120E-03    -16.1627E-03
            4722               1     34.9373E-03     34.6895E-03    -16.7573E-03    -16.7512E-03
            4723               1     33.1340E-03     32.8980E-03    -16.9954E-03    -16.9667E-03
            4724               1     31.7375E-03     31.6260E-03    -17.2086E-03    -17.2290E-03
            4725               1     30.3971E-03     30.2834E-03    -17.1180E-03    -17.1059E-03
            4726               1     29.6303E-03     29.6623E-03    -17.0392E-03    -17.0779E-03
            4727               1     28.8484E-03     28.8962E-03    -16.5952E-03    -16.6042E-03
            4728               1     28.7017E-03     28.9364E-03    -16.1775E-03    -16.2572E-03
            4729               1     28.3712E-03     28.6617E-03    -15.3062E-03    -15.3688E-03
            4730               1     28.3870E-03     28.9973E-03    -14.4124E-03    -14.6233E-03
            4731               1     28.1669E-03     28.8976E-03    -13.0457E-03    -13.2928E-03
            4732               1     27.3701E-03     28.7045E-03    -11.4964E-03    -12.1100E-03
            4733               1     26.5072E-03     28.2089E-03    -9.39057E-03    -10.5931E-03
            4734               1     25.5768E-03     22.9453E-03    -8.21558E-03    -8.77869E-03
            4735               1     41.2730E-03     39.8180E-03    -9.71483E-03    -9.59462E-03
            4736               1     41.2975E-03     40.2124E-03    -11.8883E-03    -11.8207E-03
            4737               1     40.8453E-03     39.9057E-03    -13.6913E-03    -13.6327E-03
            4738               1     39.9169E-03     39.1918E-03    -15.1623E-03    -15.1186E-03
            4739               1     38.6910E-03     38.0732E-03    -16.2228E-03    -16.1961E-03
            4740               1     37.4331E-03     36.9511E-03    -17.1275E-03    -17.1120E-03
            4741               1     35.9615E-03     35.5469E-03    -17.6408E-03    -17.6262E-03
            4742               1     34.7364E-03     34.4368E-03    -18.0990E-03    -18.1003E-03
            4743               1     33.3438E-03     33.1000E-03    -18.1799E-03    -18.1719E-03
            4744               1     32.3866E-03     32.2571E-03    -18.2654E-03    -18.2748E-03
            4745               1     31.2201E-03     31.1559E-03    -17.9410E-03    -17.9389E-03
            4746               1     30.5867E-03     30.6502E-03    -17.6476E-03    -17.6666E-03
            4747               1     29.6098E-03     29.7581E-03    -16.8764E-03    -16.8850E-03
            4748               1     29.0668E-03     29.3999E-03    -16.1062E-03    -16.1560E-03
            4749               1     28.0419E-03     28.5111E-03    -14.8230E-03    -14.8646E-03
            4750               1     26.9280E-03     27.8283E-03    -13.3803E-03    -13.5476E-03
            4751               1     25.2395E-03     26.5631E-03    -11.5103E-03    -11.7011E-03
            4752               1     21.9343E-03     24.8196E-03    -8.94876E-03    -9.64452E-03
            4753               1     16.4468E-03     23.5419E-03    -5.36445E-03    -7.51938E-03
            4754               1     31.8823E-03     32.9088E-03    -12.0044E-03    -12.1931E-03
            4755               1     29.4176E-03     30.0917E-03    -12.5571E-03    -12.3340E-03
            4756               1     27.0092E-03     27.7876E-03    -12.0807E-03    -12.1906E-03
            4757               1     25.6688E-03     26.2770E-03    -12.3136E-03    -12.2520E-03
            4758               1     24.1778E-03     24.8314E-03    -12.0930E-03    -12.1516E-03
            4759               1     23.2933E-03     23.8157E-03    -12.1853E-03    -12.1705E-03
            4760               1     22.2706E-03     22.7734E-03    -12.0324E-03    -12.0642E-03
            4761               1     21.7102E-03     22.0810E-03    -12.0722E-03    -12.0694E-03
            4762               1     21.0324E-03     21.3352E-03    -11.9348E-03    -11.9533E-03
            4763               1     20.8188E-03     20.9750E-03    -11.9690E-03    -11.9671E-03
            4764               1     20.4536E-03     20.5086E-03    -11.8086E-03    -11.8208E-03
            4765               1     20.6594E-03     20.5478E-03    -11.8606E-03    -11.8524E-03
            4766               1     20.6103E-03     20.3788E-03    -11.6139E-03    -11.6238E-03
            4767               1     21.4318E-03     21.0162E-03    -11.7246E-03    -11.7007E-03
            4768               1     21.8942E-03     21.3600E-03    -11.2907E-03    -11.3060E-03
            4769               1     24.0089E-03     23.2960E-03    -11.6514E-03    -11.5973E-03
            4770               1     26.0532E-03     25.2520E-03    -10.8375E-03    -10.8927E-03
            4771               1     31.8029E-03     30.8657E-03    -12.4086E-03    -12.3101E-03
            4772               1     45.1936E-03     44.0489E-03    -9.71065E-03    -10.0111E-03
            4773               1     33.3984E-03     33.7425E-03    -13.5249E-03    -12.9704E-03
            4774               1     30.6090E-03     31.3527E-03    -13.0063E-03    -13.2019E-03
            4775               1     28.5789E-03     29.0164E-03    -13.2715E-03    -13.0693E-03
            4776               1     26.7633E-03     27.4838E-03    -12.9164E-03    -13.0747E-03
            4777               1     25.6363E-03     26.0806E-03    -13.0345E-03    -12.9768E-03
            4778               1     24.3841E-03     24.9612E-03    -12.8085E-03    -12.9069E-03
            4779               1     23.6605E-03     24.0263E-03    -12.8558E-03    -12.8443E-03
            4780               1     22.8074E-03     23.2027E-03    -12.6985E-03    -12.7566E-03
            4781               1     22.4327E-03     22.6527E-03    -12.7377E-03    -12.7367E-03
            4782               1     21.9419E-03     22.1311E-03    -12.6129E-03    -12.6485E-03
            4783               1     21.9551E-03     21.9748E-03    -12.6755E-03    -12.6686E-03
            4784               1     21.8215E-03     21.7797E-03    -12.5395E-03    -12.5612E-03
            4785               1     22.2844E-03     22.0587E-03    -12.6366E-03    -12.6089E-03
            4786               1     22.5968E-03     22.2958E-03    -12.4232E-03    -12.4323E-03
            4787               1     23.6856E-03     23.1949E-03    -12.5609E-03    -12.4998E-03
            4788               1     25.1047E-03     24.5247E-03    -12.1896E-03    -12.1920E-03
            4789               1     27.2104E-03     26.5277E-03    -12.2389E-03    -12.1599E-03
            4790               1     33.7201E-03     32.8889E-03    -11.6226E-03    -11.6636E-03
            4791               1     34.1998E-03     33.8589E-03    -5.02570E-03    -5.11780E-03
            4792               1     34.3880E-03     34.4516E-03    -13.2886E-03    -13.2468E-03
            4793               1     31.1992E-03     31.6381E-03    -13.6074E-03    -13.4067E-03
            4794               1     29.5383E-03     30.1287E-03    -13.5980E-03    -13.7706E-03
            4795               1     27.9779E-03     28.3725E-03    -13.7394E-03    -13.6444E-03
            4796               1     26.6219E-03     27.2086E-03    -13.5354E-03    -13.6807E-03
            4797               1     25.6553E-03     25.9948E-03    -13.5746E-03    -13.5470E-03
            4798               1     24.6427E-03     25.0875E-03    -13.4008E-03    -13.4954E-03
            4799               1     24.0627E-03     24.3040E-03    -13.4220E-03    -13.4187E-03
            4800               1     23.4262E-03     23.6980E-03    -13.3064E-03    -13.3656E-03
            4801               1     23.2338E-03     23.3337E-03    -13.3524E-03    -13.3511E-03
            4802               1     22.9974E-03     23.0830E-03    -13.2774E-03    -13.3148E-03
            4803               1     23.1901E-03     23.1054E-03    -13.3443E-03    -13.3274E-03
            4804               1     23.3728E-03     23.2499E-03    -13.2572E-03    -13.2749E-03
            4805               1     23.8785E-03     23.5715E-03    -13.2644E-03    -13.2140E-03
            4806               1     24.6973E-03     24.3217E-03    -13.0629E-03    -13.0504E-03
            4807               1     25.2922E-03     24.7746E-03    -12.6438E-03    -12.5604E-03
            4808               1     27.9981E-03     27.3298E-03    -12.1051E-03    -12.0433E-03
            4809               1     27.5897E-03     27.1168E-03    -8.58619E-03    -8.54129E-03
            4810               1     28.2399E-03     27.5452E-03    -5.06900E-03    -4.68936E-03
            4811               1     32.4376E-03     33.1261E-03    -12.1440E-03    -12.4429E-03
            4812               1     31.6585E-03     31.8815E-03    -13.5427E-03    -13.5902E-03
            4813               1     29.8305E-03     30.3255E-03    -13.8802E-03    -13.8667E-03
            4814               1     28.7566E-03     29.2285E-03    -14.0298E-03    -14.1666E-03
            4815               1     27.5322E-03     27.8739E-03    -14.0957E-03    -14.0716E-03
            4816               1     26.4843E-03     26.9154E-03    -13.9923E-03    -14.1037E-03
            4817               1     25.6679E-03     25.9073E-03    -13.9921E-03    -13.9850E-03
            4818               1     24.8947E-03     25.1991E-03    -13.8875E-03    -13.9632E-03
            4819               1     24.4713E-03     24.6084E-03    -13.9023E-03    -13.9039E-03
            4820               1     24.0964E-03     24.2570E-03    -13.8515E-03    -13.9022E-03
            4821               1     24.0533E-03     24.0650E-03    -13.8859E-03    -13.8827E-03
            4822               1     24.1079E-03     24.1121E-03    -13.8658E-03    -13.8971E-03
            4823               1     24.3018E-03     24.1521E-03    -13.8281E-03    -13.8022E-03
            4824               1     24.7721E-03     24.5769E-03    -13.7320E-03    -13.7312E-03
            4825               1     24.7865E-03     24.4431E-03    -13.2799E-03    -13.2163E-03
            4826               1     25.7845E-03     25.2985E-03    -12.8112E-03    -12.7324E-03
            4827               1     24.7576E-03     24.2804E-03    -10.6916E-03    -10.6100E-03
            4828               1     24.8915E-03     24.1027E-03    -8.56296E-03    -8.26638E-03
            4829               1     24.2695E-03     23.6647E-03    -4.61783E-03    -4.51244E-03
            4830               1     31.1728E-03     31.4641E-03    -11.8404E-03    -11.8270E-03
            4831               1     30.5222E-03     31.2038E-03    -12.9941E-03    -13.2257E-03
            4832               1     30.1705E-03     30.4579E-03    -13.9309E-03    -14.0101E-03
            4833               1     28.9643E-03     29.3775E-03    -14.1838E-03    -14.2217E-03
            4834               1     28.1342E-03     28.4785E-03    -14.3399E-03    -14.4379E-03
            4835               1     27.1347E-03     27.3724E-03    -14.3622E-03    -14.3603E-03
            4836               1     26.3069E-03     26.5886E-03    -14.3234E-03    -14.4009E-03
            4837               1     25.6527E-03     25.7928E-03    -14.3149E-03    -14.3150E-03
            4838               1     25.1309E-03     25.3159E-03    -14.2802E-03    -14.3368E-03
            4839               1     24.8563E-03     24.9154E-03    -14.2838E-03    -14.2879E-03
            4840               1     24.7565E-03     24.8365E-03    -14.2896E-03    -14.3312E-03
            4841               1     24.7522E-03     24.7163E-03    -14.2431E-03    -14.2407E-03
            4842               1     25.0336E-03     24.9860E-03    -14.2218E-03    -14.2450E-03
            4843               1     24.9083E-03     24.7346E-03    -13.8755E-03    -13.8462E-03
            4844               1     25.3100E-03     25.0480E-03    -13.5650E-03    -13.5302E-03
            4845               1     24.2531E-03     23.8909E-03    -12.2179E-03    -12.1444E-03
            4846               1     23.8071E-03     23.1931E-03    -10.8432E-03    -10.6397E-03
            4847               1     21.9917E-03     21.4339E-03    -7.93297E-03    -7.81384E-03
            4848               1     20.6914E-03     19.9941E-03    -4.96687E-03    -4.55309E-03
            4849               1     29.4965E-03     30.0910E-03    -11.2664E-03    -11.5964E-03
            4850               1     30.0134E-03     30.2621E-03    -12.9161E-03    -12.9487E-03
            4851               1     29.5419E-03     30.0610E-03    -13.6378E-03    -13.8015E-03
            4852               1     29.2264E-03     29.4430E-03    -14.2590E-03    -14.3137E-03
            4853               1     28.2663E-03     28.5178E-03    -14.4082E-03    -14.4351E-03
            4854               1     27.5448E-03     27.7446E-03    -14.5416E-03    -14.5995E-03
            4855               1     26.7273E-03     26.8487E-03    -14.5505E-03    -14.5501E-03
            4856               1     26.1105E-03     26.2662E-03    -14.5648E-03    -14.6150E-03
            4857               1     25.6186E-03     25.6807E-03    -14.5519E-03    -14.5553E-03
            4858               1     25.3504E-03     25.4514E-03    -14.5695E-03    -14.6120E-03
            4859               1     25.1620E-03     25.1836E-03    -14.5193E-03    -14.5292E-03
            4860               1     25.2788E-03     25.3172E-03    -14.5333E-03    -14.5696E-03
            4861               1     25.1308E-03     25.0991E-03    -14.2941E-03    -14.3022E-03
            4862               1     25.3967E-03     25.3305E-03    -14.1469E-03    -14.1642E-03
            4863               1     24.6350E-03     24.4691E-03    -13.3063E-03    -13.2827E-03
            4864               1     24.1809E-03     23.8576E-03    -12.4829E-03    -12.3964E-03
            4865               1     22.1408E-03     21.7243E-03    -10.4611E-03    -10.3785E-03
            4866               1     20.0943E-03     19.3980E-03    -8.28201E-03    -7.95687E-03
            4867               1     17.8470E-03     17.2187E-03    -4.96377E-03    -4.84394E-03
            4868               1     28.2177E-03     28.5353E-03    -11.2156E-03    -11.2756E-03
            4869               1     28.9271E-03     29.4280E-03    -12.5284E-03    -12.7597E-03
            4870               1     29.3330E-03     29.4816E-03    -13.6245E-03    -13.6399E-03
            4871               1     28.8265E-03     29.0659E-03    -14.0431E-03    -14.1056E-03
            4872               1     28.3891E-03     28.4700E-03    -14.4455E-03    -14.4667E-03
            4873               1     27.5854E-03     27.6666E-03    -14.5507E-03    -14.5526E-03
            4874               1     26.9837E-03     27.0596E-03    -14.6778E-03    -14.7081E-03
            4875               1     26.3459E-03     26.3735E-03    -14.6880E-03    -14.6855E-03
            4876               1     25.9452E-03     26.0155E-03    -14.7376E-03    -14.7710E-03
            4877               1     25.5780E-03     25.5999E-03    -14.6925E-03    -14.7009E-03
            4878               1     25.5103E-03     25.5712E-03    -14.7162E-03    -14.7516E-03
            4879               1     25.2966E-03     25.3308E-03    -14.5442E-03    -14.5676E-03
            4880               1     25.4623E-03     25.5054E-03    -14.4802E-03    -14.5195E-03
            4881               1     24.9986E-03     25.0262E-03    -13.9606E-03    -13.9951E-03
            4882               1     24.8466E-03     24.8176E-03    -13.5468E-03    -13.5782E-03
            4883               1     23.3622E-03     23.1944E-03    -12.2696E-03    -12.2553E-03
            4884               1     21.6093E-03     21.2713E-03    -10.8635E-03    -10.7392E-03
            4885               1     18.5021E-03     17.9982E-03    -8.31950E-03    -8.24716E-03
            4886               1     15.1883E-03     14.4242E-03    -5.45818E-03    -5.01978E-03
            4887               1     26.8252E-03     27.2915E-03    -10.9839E-03    -11.2581E-03
            4888               1     28.2940E-03     28.4216E-03    -12.5475E-03    -12.5341E-03
            4889               1     28.5893E-03     28.7210E-03    -13.2871E-03    -13.3460E-03
            4890               1     28.5845E-03     28.5349E-03    -13.9756E-03    -13.9505E-03
            4891               1     28.0617E-03     28.0614E-03    -14.2687E-03    -14.2688E-03
            4892               1     27.6178E-03     27.5723E-03    -14.5743E-03    -14.5731E-03
            4893               1     26.9841E-03     26.9451E-03    -14.6733E-03    -14.6634E-03
            4894               1     26.5503E-03     26.5443E-03    -14.8042E-03    -14.8202E-03
            4895               1     26.0637E-03     26.0420E-03    -14.7953E-03    -14.7949E-03
            4896               1     25.8388E-03     25.8683E-03    -14.8398E-03    -14.8648E-03
            4897               1     25.5079E-03     25.5355E-03    -14.7099E-03    -14.7282E-03
            4898               1     25.5062E-03     25.5702E-03    -14.6676E-03    -14.7021E-03
            4899               1     25.1409E-03     25.2428E-03    -14.3139E-03    -14.3635E-03
            4900               1     25.1043E-03     25.2054E-03    -14.0805E-03    -14.1372E-03
            4901               1     24.2406E-03     24.3969E-03    -13.2926E-03    -13.3831E-03
            4902               1     23.3901E-03     23.4997E-03    -12.5846E-03    -12.6852E-03
            4903               1     21.0136E-03     20.8167E-03    -10.9469E-03    -10.9563E-03
            4904               1     17.6258E-03     17.2621E-03    -8.89753E-03    -8.70534E-03
            4905               1     13.0770E-03     12.6140E-03    -5.58989E-03    -5.66283E-03
            4906               1     25.9177E-03     26.0430E-03    -11.1563E-03    -11.1398E-03
            4907               1     27.3663E-03     27.2405E-03    -12.2219E-03    -12.1983E-03
            4908               1     27.9206E-03     27.7267E-03    -13.1436E-03    -13.0794E-03
            4909               1     27.9607E-03     27.7946E-03    -13.7018E-03    -13.6737E-03
            4910               1     27.8195E-03     27.6278E-03    -14.2177E-03    -14.1837E-03
            4911               1     27.4104E-03     27.2663E-03    -14.4886E-03    -14.4683E-03
            4912               1     27.0888E-03     26.9737E-03    -14.7593E-03    -14.7545E-03
            4913               1     26.6194E-03     26.5222E-03    -14.8433E-03    -14.8330E-03
            4914               1     26.3387E-03     26.2985E-03    -14.9523E-03    -14.9636E-03
            4915               1     25.9205E-03     25.8938E-03    -14.8764E-03    -14.8812E-03
            4916               1     25.7536E-03     25.7816E-03    -14.8517E-03    -14.8728E-03
            4917               1     25.3349E-03     25.4071E-03    -14.5807E-03    -14.6122E-03
            4918               1     25.1906E-03     25.2965E-03    -14.3885E-03    -14.4270E-03
            4919               1     24.5636E-03     24.7820E-03    -13.8325E-03    -13.9205E-03
            4920               1     24.0758E-03     24.3043E-03    -13.3682E-03    -13.4656E-03
            4921               1     22.7499E-03     23.1419E-03    -12.3729E-03    -12.5688E-03
            4922               1     21.0192E-03     21.4946E-03    -11.3975E-03    -11.6965E-03
            4923               1     17.3573E-03     17.1089E-03    -9.30675E-03    -9.36403E-03
            4924               1     11.5983E-03     10.9880E-03    -6.22263E-03    -5.79500E-03
            4925               1     24.8913E-03     24.3158E-03    -10.8664E-03    -10.6986E-03
            4926               1     26.1586E-03     25.7278E-03    -11.9581E-03    -11.8631E-03
            4927               1     27.0418E-03     26.6224E-03    -12.8569E-03    -12.7845E-03
            4928               1     27.3889E-03     27.0254E-03    -13.6037E-03    -13.5468E-03
            4929               1     27.4516E-03     27.1642E-03    -14.1298E-03    -14.0993E-03
            4930               1     27.4215E-03     27.1793E-03    -14.5943E-03    -14.5729E-03
            4931               1     27.1613E-03     26.9687E-03    -14.8410E-03    -14.8258E-03
            4932               1     26.9830E-03     26.8498E-03    -15.0737E-03    -15.0727E-03
            4933               1     26.5949E-03     26.4925E-03    -15.0933E-03    -15.0886E-03
            4934               1     26.3699E-03     26.3297E-03    -15.1290E-03    -15.1376E-03
            4935               1     25.8886E-03     25.8881E-03    -14.9270E-03    -14.9369E-03
            4936               1     25.5998E-03     25.6504E-03    -14.7590E-03    -14.7755E-03
            4937               1     24.9473E-03     25.0816E-03    -14.3020E-03    -14.3438E-03
            4938               1     24.4172E-03     24.5856E-03    -13.8777E-03    -13.9180E-03
            4939               1     23.3961E-03     23.7548E-03    -13.1164E-03    -13.2439E-03
            4940               1     22.1945E-03     22.6021E-03    -12.3492E-03    -12.4937E-03
            4941               1     20.3381E-03     21.1437E-03    -11.2004E-03    -11.5746E-03
            4942               1     17.4573E-03     18.7437E-03    -9.84946E-03    -10.5796E-03
            4943               1     11.5641E-03     12.2142E-03    -6.62711E-03    -7.02944E-03
            4944               1     22.8610E-03     22.0692E-03    -10.2797E-03    -10.2398E-03
            4945               1     25.0025E-03     24.2735E-03    -11.7048E-03    -11.6279E-03
            4946               1     26.1185E-03     25.5877E-03    -12.7303E-03    -12.6981E-03
            4947               1     26.9317E-03     26.4851E-03    -13.6102E-03    -13.5855E-03
            4948               1     27.4021E-03     27.0458E-03    -14.3166E-03    -14.3007E-03
            4949               1     27.5618E-03     27.2685E-03    -14.7962E-03    -14.7867E-03
            4950               1     27.6608E-03     27.4327E-03    -15.2058E-03    -15.2012E-03
            4951               1     27.4617E-03     27.2806E-03    -15.3730E-03    -15.3687E-03
            4952               1     27.3392E-03     27.2178E-03    -15.5259E-03    -15.5271E-03
            4953               1     26.8993E-03     26.8215E-03    -15.4220E-03    -15.4219E-03
            4954               1     26.5872E-03     26.5644E-03    -15.3272E-03    -15.3312E-03
            4955               1     25.8974E-03     25.9266E-03    -14.9487E-03    -14.9560E-03
            4956               1     25.2903E-03     25.3684E-03    -14.5665E-03    -14.5751E-03
            4957               1     24.2429E-03     24.4006E-03    -13.8889E-03    -13.9161E-03
            4958               1     23.0591E-03     23.2683E-03    -13.1335E-03    -13.1619E-03
            4959               1     21.4706E-03     21.8435E-03    -12.1590E-03    -12.2523E-03
            4960               1     19.1285E-03     19.6210E-03    -10.8733E-03    -11.0044E-03
            4961               1     16.9786E-03     17.8712E-03    -9.73113E-03    -10.1214E-03
            4962               1     13.4178E-03     14.1313E-03    -6.64185E-03    -8.02588E-03
            4963               1     20.5722E-03     21.1408E-03    -11.6237E-03    -11.7992E-03
            4964               1     21.2347E-03     21.4386E-03    -12.1013E-03    -12.0517E-03
            4965               1     20.8016E-03     21.0916E-03    -11.8679E-03    -11.8881E-03
            4966               1     20.8529E-03     21.0777E-03    -11.9393E-03    -11.9338E-03
            4967               1     20.6412E-03     20.8660E-03    -11.8427E-03    -11.8536E-03
            4968               1     20.6418E-03     20.8152E-03    -11.8708E-03    -11.8677E-03
            4969               1     20.5413E-03     20.7027E-03    -11.8320E-03    -11.8395E-03
            4970               1     20.5457E-03     20.6644E-03    -11.8496E-03    -11.8496E-03
            4971               1     20.4933E-03     20.5903E-03    -11.8284E-03    -11.8339E-03
            4972               1     20.5303E-03     20.5889E-03    -11.8532E-03    -11.8543E-03
            4973               1     20.4870E-03     20.5199E-03    -11.8258E-03    -11.8310E-03
            4974               1     20.6047E-03     20.5994E-03    -11.8865E-03    -11.8869E-03
            4975               1     20.5192E-03     20.4900E-03    -11.8221E-03    -11.8295E-03
            4976               1     20.8343E-03     20.7642E-03    -11.9906E-03    -11.9878E-03
            4977               1     20.5587E-03     20.4710E-03    -11.8013E-03    -11.8125E-03
            4978               1     21.1895E-03     21.0798E-03    -12.1609E-03    -12.1619E-03
            4979               1     19.7844E-03     19.5828E-03    -11.2522E-03    -11.2525E-03
            4980               1     20.1660E-03     19.7143E-03    -11.2892E-03    -11.1950E-03
            4981               1     20.7398E-03     19.8201E-03    -7.47606E-03    -7.83252E-03
            4982               1     21.8952E-03     21.8500E-03    -12.4276E-03    -12.2969E-03
            4983               1     21.3937E-03     21.5583E-03    -12.1012E-03    -12.1526E-03
            4984               1     21.2603E-03     21.3468E-03    -12.1040E-03    -12.0966E-03
            4985               1     21.0596E-03     21.1825E-03    -12.0117E-03    -12.0340E-03
            4986               1     21.0249E-03     21.0870E-03    -12.0365E-03    -12.0291E-03
            4987               1     20.9173E-03     21.0155E-03    -12.0015E-03    -12.0214E-03
            4988               1     20.8998E-03     20.9491E-03    -12.0191E-03    -12.0166E-03
            4989               1     20.8355E-03     20.9032E-03    -12.0016E-03    -12.0163E-03
            4990               1     20.8322E-03     20.8667E-03    -12.0145E-03    -12.0162E-03
            4991               1     20.7936E-03     20.8339E-03    -12.0017E-03    -12.0136E-03
            4992               1     20.8190E-03     20.8341E-03    -12.0198E-03    -12.0231E-03
            4993               1     20.7893E-03     20.8048E-03    -12.0001E-03    -12.0114E-03
            4994               1     20.8739E-03     20.8663E-03    -12.0436E-03    -12.0465E-03
            4995               1     20.8429E-03     20.8346E-03    -12.0063E-03    -12.0187E-03
            4996               1     21.1128E-03     21.0924E-03    -12.1590E-03    -12.1654E-03
            4997               1     21.2043E-03     21.1473E-03    -12.1623E-03    -12.1610E-03
            4998               1     21.8199E-03     21.8299E-03    -12.5504E-03    -12.5775E-03
            4999               1     20.5942E-03     20.4090E-03    -11.5518E-03    -11.5549E-03
            5000               1     12.2403E-03     12.0055E-03    -5.83690E-03    -5.49030E-03
            5001               1     22.1913E-03     21.8015E-03    -12.3938E-03    -12.2659E-03
            5002               1     21.4789E-03     21.4675E-03    -12.1367E-03    -12.1586E-03
            5003               1     21.5019E-03     21.4673E-03    -12.1705E-03    -12.1952E-03
            5004               1     21.3450E-03     21.2610E-03    -12.1459E-03    -12.1332E-03
            5005               1     21.3073E-03     21.2897E-03    -12.1581E-03    -12.1805E-03
            5006               1     21.2444E-03     21.1902E-03    -12.1623E-03    -12.1583E-03
            5007               1     21.1998E-03     21.1876E-03    -12.1656E-03    -12.1817E-03
            5008               1     21.1586E-03     21.1279E-03    -12.1679E-03    -12.1685E-03
            5009               1     21.1258E-03     21.1243E-03    -12.1692E-03    -12.1818E-03
            5010               1     21.0940E-03     21.0841E-03    -12.1650E-03    -12.1681E-03
            5011               1     21.0870E-03     21.1000E-03    -12.1709E-03    -12.1819E-03
            5012               1     21.0470E-03     21.0556E-03    -12.1512E-03    -12.1554E-03
            5013               1     21.0909E-03     21.1206E-03    -12.1742E-03    -12.1843E-03
            5014               1     21.0102E-03     21.0360E-03    -12.1237E-03    -12.1283E-03
            5015               1     21.2399E-03     21.2924E-03    -12.2314E-03    -12.2423E-03
            5016               1     21.1481E-03     21.1696E-03    -12.1778E-03    -12.1713E-03
            5017               1     21.8957E-03     22.0107E-03    -12.5088E-03    -12.5416E-03
            5018               1     19.2789E-03     19.4408E-03    -11.0617E-03    -11.1332E-03
            5019               1     10.2575E-03     9.82423E-03    -5.91246E-03    -5.61472E-03
            5020               1     20.6525E-03     20.6868E-03    -11.5403E-03    -11.7120E-03
            5021               1     21.8184E-03     21.4803E-03    -12.2493E-03    -12.2086E-03
            5022               1     21.5427E-03     21.3172E-03    -12.1627E-03    -12.1674E-03
            5023               1     21.7113E-03     21.5148E-03    -12.3083E-03    -12.3136E-03
            5024               1     21.5669E-03     21.3867E-03    -12.2727E-03    -12.2741E-03
            5025               1     21.5850E-03     21.4372E-03    -12.3227E-03    -12.3272E-03
            5026               1     21.4980E-03     21.3704E-03    -12.3080E-03    -12.3097E-03
            5027               1     21.4823E-03     21.3866E-03    -12.3293E-03    -12.3338E-03
            5028               1     21.4138E-03     21.3403E-03    -12.3145E-03    -12.3165E-03
            5029               1     21.4103E-03     21.3682E-03    -12.3328E-03    -12.3368E-03
            5030               1     21.3261E-03     21.3085E-03    -12.2983E-03    -12.3011E-03
            5031               1     21.3768E-03     21.3894E-03    -12.3377E-03    -12.3405E-03
            5032               1     21.2063E-03     21.2475E-03    -12.2430E-03    -12.2478E-03
            5033               1     21.4019E-03     21.4683E-03    -12.3546E-03    -12.3540E-03
            5034               1     20.9247E-03     21.0256E-03    -12.0743E-03    -12.0804E-03
            5035               1     21.3399E-03     21.4812E-03    -12.2927E-03    -12.2954E-03
            5036               1     19.2886E-03     19.4396E-03    -11.1023E-03    -11.1090E-03
            5037               1     18.5681E-03     18.5501E-03    -10.6973E-03    -10.6550E-03
            5038               1     14.9638E-03     14.4917E-03    -6.66459E-03    -7.11920E-03
            5039               1     509.955E-06     641.391E-06    -273.000E-06    -349.892E-06
            5040               1     563.019E-06     623.923E-06    -321.376E-06    -345.042E-06
            5041               1     570.790E-06     600.470E-06    -328.811E-06    -330.457E-06
            5042               1     577.904E-06     620.778E-06    -333.624E-06    -337.284E-06
            5043               1     577.410E-06     623.602E-06    -333.056E-06    -334.177E-06
            5044               1     583.029E-06     638.953E-06    -335.095E-06    -336.963E-06
            5045               1     586.151E-06     648.848E-06    -334.767E-06    -336.719E-06
            5046               1     593.648E-06     662.937E-06    -336.117E-06    -338.099E-06
            5047               1     601.436E-06     675.844E-06    -336.689E-06    -338.797E-06
            5048               1     612.204E-06     691.046E-06    -338.392E-06    -340.191E-06
            5049               1     623.441E-06     706.100E-06    -339.405E-06    -341.724E-06
            5050               1     637.423E-06     722.536E-06    -341.856E-06    -343.356E-06
            5051               1     650.611E-06     738.421E-06    -342.612E-06    -345.355E-06
            5052               1     666.048E-06     754.866E-06    -345.168E-06    -346.245E-06
            5053               1     677.856E-06     768.885E-06    -342.677E-06    -346.392E-06
            5054               1     692.190E-06     784.161E-06    -342.693E-06    -342.971E-06
            5055               1     699.535E-06     795.236E-06    -326.794E-06    -332.929E-06
            5056               1     726.712E-06     825.405E-06    -323.872E-06    -318.814E-06
            5057               1     767.881E-06     877.938E-06    -272.377E-06    -281.716E-06
            5058               1     627.347E-06     632.274E-06    -360.462E-06    -364.304E-06
            5059               1     577.755E-06     626.540E-06    -332.117E-06    -355.475E-06
            5060               1     589.599E-06     631.712E-06    -340.381E-06    -354.000E-06
            5061               1     595.114E-06     623.361E-06    -343.158E-06    -345.992E-06
            5062               1     598.492E-06     638.010E-06    -343.867E-06    -349.119E-06
            5063               1     601.700E-06     644.539E-06    -343.668E-06    -348.392E-06
            5064               1     607.624E-06     656.658E-06    -344.061E-06    -349.481E-06
            5065               1     614.810E-06     667.507E-06    -344.482E-06    -349.801E-06
            5066               1     624.467E-06     680.641E-06    -345.540E-06    -350.650E-06
            5067               1     634.652E-06     694.692E-06    -346.108E-06    -351.932E-06
            5068               1     648.537E-06     709.141E-06    -348.461E-06    -352.857E-06
            5069               1     660.923E-06     726.335E-06    -348.988E-06    -355.641E-06
            5070               1     678.794E-06     741.564E-06    -353.133E-06    -356.619E-06
            5071               1     692.675E-06     761.712E-06    -353.315E-06    -361.346E-06
            5072               1     712.369E-06     776.081E-06    -358.821E-06    -361.349E-06
            5073               1     727.820E-06     799.512E-06    -356.398E-06    -366.716E-06
            5074               1     743.715E-06     810.461E-06    -358.925E-06    -359.962E-06
            5075               1     773.171E-06     844.838E-06    -343.014E-06    -355.320E-06
            5076               1     795.843E-06     864.596E-06    -331.519E-06    -320.690E-06
            5077               1     667.507E-06     538.448E-06    -385.206E-06    -309.698E-06
            5078               1     651.260E-06     618.069E-06    -375.520E-06    -355.593E-06
            5079               1     615.662E-06     628.944E-06    -354.478E-06    -357.973E-06
            5080               1     619.825E-06     640.333E-06    -356.060E-06    -360.209E-06
            5081               1     618.950E-06     646.252E-06    -353.437E-06    -360.501E-06
            5082               1     622.754E-06     654.235E-06    -352.642E-06    -360.390E-06
            5083               1     630.116E-06     662.493E-06    -353.307E-06    -360.304E-06
            5084               1     637.590E-06     672.813E-06    -353.132E-06    -360.525E-06
            5085               1     647.320E-06     684.581E-06    -353.631E-06    -361.185E-06
            5086               1     659.363E-06     696.767E-06    -354.893E-06    -361.475E-06
            5087               1     671.032E-06     712.493E-06    -355.100E-06    -363.563E-06
            5088               1     688.071E-06     726.256E-06    -358.472E-06    -363.975E-06
            5089               1     702.368E-06     747.224E-06    -359.045E-06    -368.813E-06
            5090               1     724.282E-06     762.321E-06    -365.309E-06    -369.557E-06
            5091               1     743.588E-06     790.872E-06    -367.580E-06    -379.006E-06
            5092               1     764.916E-06     804.023E-06    -374.286E-06    -377.638E-06
            5093               1     794.628E-06     841.376E-06    -377.239E-06    -389.482E-06
            5094               1     782.822E-06     834.545E-06    -359.296E-06    -367.239E-06
            5095               1     846.883E-06     870.362E-06    -338.719E-06    -345.095E-06
            5096               1     656.967E-06     641.046E-06    -379.283E-06    -369.844E-06
            5097               1     660.232E-06     592.515E-06    -380.535E-06    -340.954E-06
            5098               1     661.800E-06     637.474E-06    -380.252E-06    -365.160E-06
            5099               1     636.729E-06     654.517E-06    -363.457E-06    -372.978E-06
            5100               1     641.105E-06     656.566E-06    -363.065E-06    -371.148E-06
            5101               1     647.529E-06     662.655E-06    -363.211E-06    -370.936E-06
            5102               1     652.805E-06     669.355E-06    -361.902E-06    -370.425E-06
            5103               1     662.549E-06     678.137E-06    -362.598E-06    -370.375E-06
            5104               1     672.032E-06     687.536E-06    -362.474E-06    -370.123E-06
            5105               1     682.894E-06     700.109E-06    -362.419E-06    -371.048E-06
            5106               1     697.028E-06     711.245E-06    -363.957E-06    -370.595E-06
            5107               1     709.830E-06     728.858E-06    -363.673E-06    -373.436E-06
            5108               1     729.184E-06     741.927E-06    -367.587E-06    -372.990E-06
            5109               1     746.483E-06     767.083E-06    -368.677E-06    -379.639E-06
            5110               1     769.604E-06     781.742E-06    -374.602E-06    -378.862E-06
            5111               1     795.472E-06     815.784E-06    -379.489E-06    -390.574E-06
            5112               1     803.182E-06     821.223E-06    -374.546E-06    -381.111E-06
            5113               1     829.916E-06     844.131E-06    -376.591E-06    -383.342E-06
            5114               1     720.165E-06     778.800E-06    -273.757E-06    -314.379E-06
            5115               1     702.406E-06     570.258E-06    -404.846E-06    -329.189E-06
            5116               1     687.230E-06     657.878E-06    -396.085E-06    -378.115E-06
            5117               1     652.707E-06     663.367E-06    -372.745E-06    -381.977E-06
            5118               1     662.197E-06     664.641E-06    -374.952E-06    -381.820E-06
            5119               1     665.872E-06     667.342E-06    -373.509E-06    -380.915E-06
            5120               1     670.740E-06     671.129E-06    -372.152E-06    -380.375E-06
            5121               1     680.254E-06     676.543E-06    -372.846E-06    -379.612E-06
            5122               1     687.725E-06     683.207E-06    -371.799E-06    -379.173E-06
            5123               1     697.954E-06     692.127E-06    -371.670E-06    -379.103E-06
            5124               1     709.029E-06     700.326E-06    -371.563E-06    -378.105E-06
            5125               1     720.012E-06     713.179E-06    -370.551E-06    -378.950E-06
            5126               1     734.858E-06     722.442E-06    -371.582E-06    -377.078E-06
            5127               1     747.752E-06     740.561E-06    -370.168E-06    -379.598E-06
            5128               1     766.261E-06     750.957E-06    -372.202E-06    -376.510E-06
            5129               1     783.114E-06     775.022E-06    -371.569E-06    -381.397E-06
            5130               1     799.231E-06     783.481E-06    -370.131E-06    -374.008E-06
            5131               1     813.112E-06     802.028E-06    -368.950E-06    -376.511E-06
            5132               1     787.415E-06     780.601E-06    -335.315E-06    -345.846E-06
            5133               1     705.620E-06     710.005E-06    -303.578E-06    -306.058E-06
            5134               1     698.722E-06     722.439E-06    -401.431E-06    -413.628E-06
            5135               1     646.181E-06     701.607E-06    -366.643E-06    -404.684E-06
            5136               1     669.380E-06     689.599E-06    -378.428E-06    -398.127E-06
            5137               1     683.598E-06     673.278E-06    -383.318E-06    -388.134E-06
            5138               1     690.923E-06     678.840E-06    -383.470E-06    -390.265E-06
            5139               1     699.592E-06     679.496E-06    -383.834E-06    -388.280E-06
            5140               1     706.841E-06     684.560E-06    -382.952E-06    -388.482E-06
            5141               1     716.290E-06     689.818E-06    -382.666E-06    -387.715E-06
            5142               1     725.492E-06     695.657E-06    -381.768E-06    -386.802E-06
            5143               1     735.340E-06     704.047E-06    -380.646E-06    -386.379E-06
            5144               1     746.422E-06     710.217E-06    -379.731E-06    -384.105E-06
            5145               1     756.295E-06     721.583E-06    -377.321E-06    -383.810E-06
            5146               1     768.512E-06     726.908E-06    -375.740E-06    -379.262E-06
            5147               1     777.667E-06     740.093E-06    -371.225E-06    -378.232E-06
            5148               1     787.672E-06     742.075E-06    -366.257E-06    -369.091E-06
            5149               1     790.345E-06     748.617E-06    -356.926E-06    -363.219E-06
            5150               1     784.975E-06     736.922E-06    -339.442E-06    -342.259E-06
            5151               1     739.111E-06     695.688E-06    -312.737E-06    -315.700E-06
            5152               1     673.951E-06     616.536E-06    -266.298E-06    -261.560E-06
            5153               1     604.197E-06     755.548E-06    -319.331E-06    -420.285E-06
            5154               1     680.017E-06     717.629E-06    -380.172E-06    -410.492E-06
            5155               1     697.204E-06     682.483E-06    -389.620E-06    -393.500E-06
            5156               1     711.386E-06     692.281E-06    -394.508E-06    -399.662E-06
            5157               1     718.504E-06     686.037E-06    -394.417E-06    -395.591E-06
            5158               1     728.578E-06     691.186E-06    -395.301E-06    -397.409E-06
            5159               1     736.404E-06     692.734E-06    -394.398E-06    -396.158E-06
            5160               1     745.720E-06     696.835E-06    -393.833E-06    -395.785E-06
            5161               1     754.762E-06     701.617E-06    -392.811E-06    -394.834E-06
            5162               1     764.137E-06     705.998E-06    -391.299E-06    -393.083E-06
            5163               1     773.142E-06     712.695E-06    -389.388E-06    -391.659E-06
            5164               1     781.682E-06     716.012E-06    -386.266E-06    -387.798E-06
            5165               1     788.328E-06     722.408E-06    -382.011E-06    -384.516E-06
            5166               1     792.320E-06     720.231E-06    -374.752E-06    -375.963E-06
            5167               1     789.346E-06     718.702E-06    -363.988E-06    -366.560E-06
            5168               1     777.852E-06     699.916E-06    -346.408E-06    -347.294E-06
            5169               1     740.023E-06     664.214E-06    -317.332E-06    -319.774E-06
            5170               1     689.495E-06     600.744E-06    -282.720E-06    -280.043E-06
            5171               1     543.480E-06     459.137E-06    -211.568E-06    -213.709E-06
            5172               1     131.536E-03     130.924E-03     72.3651E-03     73.1192E-03
            5173               1     140.561E-03     138.135E-03     77.5654E-03     77.3181E-03
            5174               1     142.231E-03     141.140E-03     78.9416E-03     79.4471E-03
            5175               1     145.294E-03     143.681E-03     81.1869E-03     81.3709E-03
            5176               1     145.123E-03     143.788E-03     81.5782E-03     81.8742E-03
            5177               1     145.889E-03     144.675E-03     82.4616E-03     82.7466E-03
            5178               1     145.278E-03     144.192E-03     82.4988E-03     82.7705E-03
            5179               1     145.401E-03     144.566E-03     82.9176E-03     83.2119E-03
            5180               1     144.603E-03     143.965E-03     82.7440E-03     83.0194E-03
            5181               1     144.628E-03     144.307E-03     83.0117E-03     83.3007E-03
            5182               1     143.484E-03     143.448E-03     82.5382E-03     82.8156E-03
            5183               1     143.559E-03     143.927E-03     82.7373E-03     83.0269E-03
            5184               1     141.423E-03     142.108E-03     81.5910E-03     81.8500E-03
            5185               1     141.176E-03     142.441E-03     81.4977E-03     81.8268E-03
            5186               1     136.231E-03     137.565E-03     78.6384E-03     78.8026E-03
            5187               1     133.822E-03     135.845E-03     77.2207E-03     77.6294E-03
            5188               1     122.383E-03     124.244E-03     70.5858E-03     71.0757E-03
            5189               1     117.278E-03     119.480E-03     67.1697E-03     68.7652E-03
            5190               1     103.925E-03     101.791E-03     47.5946E-03     56.3085E-03
            5191               1     139.903E-03     137.620E-03     76.4470E-03     75.7585E-03
            5192               1     141.119E-03     142.533E-03     77.7142E-03     79.1157E-03
            5193               1     144.696E-03     144.031E-03     80.2358E-03     80.6137E-03
            5194               1     143.505E-03     143.756E-03     80.2795E-03     81.0626E-03
            5195               1     143.965E-03     144.126E-03     81.0242E-03     81.7710E-03
            5196               1     143.152E-03     143.296E-03     81.0622E-03     81.7344E-03
            5197               1     142.991E-03     143.428E-03     81.3591E-03     82.1493E-03
            5198               1     142.341E-03     142.727E-03     81.3281E-03     82.0174E-03
            5199               1     142.160E-03     142.842E-03     81.5134E-03     82.2847E-03
            5200               1     141.499E-03     142.229E-03     81.3471E-03     82.0539E-03
            5201               1     141.502E-03     142.536E-03     81.5318E-03     82.2905E-03
            5202               1     140.659E-03     141.783E-03     81.1440E-03     81.8399E-03
            5203               1     140.963E-03     142.554E-03     81.3745E-03     82.1707E-03
            5204               1     139.491E-03     140.957E-03     80.5040E-03     81.1012E-03
            5205               1     139.744E-03     142.248E-03     80.5238E-03     81.5008E-03
            5206               1     135.270E-03     137.036E-03     77.8199E-03     78.2867E-03
            5207               1     131.166E-03     134.257E-03     75.2889E-03     76.4918E-03
            5208               1     117.231E-03     122.947E-03     67.3140E-03     70.8353E-03
            5209               1     84.8693E-03     85.4405E-03     48.7170E-03     47.7141E-03
            5210               1     141.090E-03     145.294E-03     77.2536E-03     79.5432E-03
            5211               1     146.226E-03     146.614E-03     80.5402E-03     81.1472E-03
            5212               1     144.094E-03     145.740E-03     80.3243E-03     81.3336E-03
            5213               1     143.679E-03     144.933E-03     80.4923E-03     81.4593E-03
            5214               1     142.178E-03     143.428E-03     80.2677E-03     81.1445E-03
            5215               1     141.354E-03     142.854E-03     80.1982E-03     81.2424E-03
            5216               1     140.588E-03     141.862E-03     80.1717E-03     81.0583E-03
            5217               1     140.014E-03     141.555E-03     80.1607E-03     81.1850E-03
            5218               1     139.573E-03     140.964E-03     80.1633E-03     81.0766E-03
            5219               1     139.300E-03     140.898E-03     80.2143E-03     81.2166E-03
            5220               1     139.093E-03     140.609E-03     80.2173E-03     81.1427E-03
            5221               1     139.281E-03     140.996E-03     80.4024E-03     81.4001E-03
            5222               1     139.401E-03     141.017E-03     80.4725E-03     81.3806E-03
            5223               1     140.339E-03     142.319E-03     80.9183E-03     81.9702E-03
            5224               1     140.239E-03     141.983E-03     80.7614E-03     81.6651E-03
            5225               1     140.782E-03     143.238E-03     80.7293E-03     81.9443E-03
            5226               1     133.885E-03     135.755E-03     76.6620E-03     77.5516E-03
            5227               1     117.612E-03     112.576E-03     67.1302E-03     64.6039E-03
            5228               1     81.5068E-03     74.4121E-03     46.7196E-03     42.1391E-03
            5229               1     145.505E-03     148.492E-03     79.3794E-03     81.1885E-03
            5230               1     145.322E-03     147.351E-03     80.8529E-03     81.4502E-03
            5231               1     143.820E-03     146.346E-03     80.2699E-03     81.5328E-03
            5232               1     142.259E-03     144.223E-03     80.1315E-03     80.8974E-03
            5233               1     140.476E-03     142.857E-03     79.4682E-03     80.5781E-03
            5234               1     139.521E-03     141.496E-03     79.3968E-03     80.2596E-03
            5235               1     138.381E-03     140.603E-03     79.0759E-03     80.1202E-03
            5236               1     137.945E-03     139.866E-03     79.1293E-03     80.0281E-03
            5237               1     137.282E-03     139.335E-03     78.9804E-03     79.9960E-03
            5238               1     137.275E-03     139.089E-03     79.1314E-03     80.0502E-03
            5239               1     137.035E-03     138.896E-03     79.0937E-03     80.0956E-03
            5240               1     137.592E-03     139.256E-03     79.4375E-03     80.3727E-03
            5241               1     137.950E-03     139.560E-03     79.5916E-03     80.5685E-03
            5242               1     139.231E-03     140.780E-03     80.2572E-03     81.2483E-03
            5243               1     140.161E-03     141.443E-03     80.5388E-03     81.4664E-03
            5244               1     140.361E-03     141.904E-03     80.5342E-03     81.6690E-03
            5245               1     138.342E-03     138.225E-03     78.4604E-03     78.9449E-03
            5246               1     118.913E-03     115.483E-03     66.3911E-03     63.8711E-03
            5247               1     90.6142E-03     81.0033E-03     46.6268E-03     42.4115E-03
            5248               1     144.627E-03     145.193E-03     79.7372E-03     78.9256E-03
            5249               1     141.951E-03     145.950E-03     78.7899E-03     80.4503E-03
            5250               1     142.040E-03     144.140E-03     79.8232E-03     80.1254E-03
            5251               1     139.462E-03     142.551E-03     78.6771E-03     79.7141E-03
            5252               1     138.800E-03     141.195E-03     78.8226E-03     79.4300E-03
            5253               1     137.106E-03     139.768E-03     78.1870E-03     79.0192E-03
            5254               1     136.630E-03     138.919E-03     78.2592E-03     78.9334E-03
            5255               1     135.573E-03     137.904E-03     77.9056E-03     78.6918E-03
            5256               1     135.541E-03     137.543E-03     78.0796E-03     78.7735E-03
            5257               1     134.928E-03     136.856E-03     77.8515E-03     78.6254E-03
            5258               1     135.476E-03     137.079E-03     78.2148E-03     78.9231E-03
            5259               1     135.175E-03     136.585E-03     78.0176E-03     78.7763E-03
            5260               1     136.435E-03     137.622E-03     78.6737E-03     79.4324E-03
            5261               1     136.247E-03     136.880E-03     78.3780E-03     79.0248E-03
            5262               1     137.945E-03     138.774E-03     79.2022E-03     80.0950E-03
            5263               1     136.772E-03     135.975E-03     77.9470E-03     78.2798E-03
            5264               1     135.736E-03     135.236E-03     76.8235E-03     77.5448E-03
            5265               1     133.941E-03     133.981E-03     71.1389E-03     73.7673E-03
            5266               1     103.429E-03     106.441E-03     47.2879E-03     45.6864E-03
            5267               1     137.900E-03     141.970E-03     75.2040E-03     76.2790E-03
            5268               1     140.032E-03     142.044E-03     78.1234E-03     77.8156E-03
            5269               1     137.365E-03     140.664E-03     77.1647E-03     77.8133E-03
            5270               1     137.692E-03     140.216E-03     77.9796E-03     78.1275E-03
            5271               1     135.726E-03     138.496E-03     77.2272E-03     77.6000E-03
            5272               1     135.359E-03     137.798E-03     77.3975E-03     77.6406E-03
            5273               1     133.991E-03     136.356E-03     76.8894E-03     77.2017E-03
            5274               1     133.838E-03     135.891E-03     77.0306E-03     77.2939E-03
            5275               1     132.987E-03     134.820E-03     76.6913E-03     76.9923E-03
            5276               1     133.376E-03     134.832E-03     76.9936E-03     77.2623E-03
            5277               1     132.823E-03     133.954E-03     76.6771E-03     76.9769E-03
            5278               1     133.891E-03     134.593E-03     77.2268E-03     77.5036E-03
            5279               1     133.142E-03     133.381E-03     76.6407E-03     76.9265E-03
            5280               1     134.719E-03     134.554E-03     77.3536E-03     77.6650E-03
            5281               1     132.522E-03     131.411E-03     75.6926E-03     75.8621E-03
            5282               1     133.920E-03     132.246E-03     75.9806E-03     76.2609E-03
            5283               1     128.506E-03     125.112E-03     71.1214E-03     71.5202E-03
            5284               1     134.942E-03     129.698E-03     71.7682E-03     72.6526E-03
            5285               1     150.354E-03     136.852E-03     53.2361E-03     60.4456E-03
            5286               1     96.9654E-03     97.7569E-03     35.3116E-03     35.2968E-03
            5287               1     91.6282E-03     92.3866E-03     35.3116E-03     35.2968E-03
            5288               1     86.5310E-03     87.2503E-03     35.3116E-03     35.2968E-03
            5289               1     81.7187E-03     82.3916E-03     35.3116E-03     35.2968E-03
            5290               1     77.2445E-03     77.8626E-03     35.3116E-03     35.2968E-03
            5291               1     73.1705E-03     73.7240E-03     35.3116E-03     35.2968E-03
            5292               1     69.5670E-03     70.0451E-03     35.3116E-03     35.2968E-03
            5293               1     66.5106E-03     66.9018E-03     35.3116E-03     35.2968E-03
            5294               1     64.0796E-03     64.3725E-03     35.3116E-03     35.2968E-03
            5295               1     62.3472E-03     62.5319E-03     35.3116E-03     35.2968E-03
            5296               1     61.3726E-03     61.4418E-03     35.3116E-03     35.2968E-03
            5297               1     61.1920E-03     61.1424E-03     35.3116E-03     35.2968E-03
            5298               1     61.8124E-03     61.6453E-03     35.3116E-03     35.2968E-03
            5299               1     63.2101E-03     62.9311E-03     35.3116E-03     35.2968E-03
            5300               1     65.3354E-03     64.9534E-03     35.3116E-03     35.2968E-03
            5301               1     68.1201E-03     67.6463E-03     35.3116E-03     35.2968E-03
            5302               1     71.4872E-03     70.9333E-03     35.3116E-03     35.2968E-03
            5303               1     75.3587E-03     74.7361E-03     35.3116E-03     35.2968E-03
            5304               1     79.6611E-03     78.9803E-03     35.3116E-03     35.2968E-03
            5305               1     99.0378E-03     100.469E-03     56.9381E-03     57.9931E-03
            5306               1     126.087E-03     121.421E-03     69.7989E-03     68.1981E-03
            5307               1     99.8434E-03     104.009E-03     56.0522E-03     57.8343E-03
            5308               1     127.626E-03     130.059E-03     70.5928E-03     72.0444E-03
            5309               1     106.261E-03     106.298E-03     55.2136E-03     56.2355E-03
            5310               1     128.599E-03     132.435E-03     69.7299E-03     71.6711E-03
            5311               1     116.265E-03     120.302E-03     57.6271E-03     58.2182E-03
            5312               1     134.945E-03     139.324E-03     70.8339E-03     73.7442E-03
            5313               1     136.094E-03     133.983E-03     62.1566E-03     63.8038E-03
            5314               1     147.324E-03     149.140E-03     77.0954E-03     77.9360E-03
            5315               1     149.252E-03     156.356E-03     67.4795E-03     66.7639E-03
            5316               1     145.196E-03     145.638E-03     77.8320E-03     75.4221E-03
            5317               1     108.396E-03     109.240E-03     35.3116E-03     35.2968E-03
            5318               1     102.563E-03     103.383E-03     35.3116E-03     35.2968E-03
            5319               1     912.440E-06     1.04735E-03    -299.046E-06    -263.679E-06
            5320               1     1.43259E-03     1.67045E-03    -147.210E-06    -114.078E-06
            5321               1     1.01520E-03     1.04498E-03    -293.138E-06    -282.263E-06
            5322               1     1.25179E-03     1.14685E-03    -7.36958E-06    -33.7175E-06
            5323               1     812.097E-06     842.881E-06    -163.254E-06    -208.387E-06
            5324               1     865.551E-06     938.674E-06     67.2096E-06     52.8121E-06
            5325               1     624.575E-06     652.214E-06    -148.075E-06    -161.758E-06
            5326               1     632.680E-06     615.038E-06     109.486E-06     88.9136E-06
            5327               1     435.798E-06     486.435E-06    -121.211E-06    -165.009E-06
            5328               1     370.590E-06     334.984E-06     116.626E-06     95.2713E-06
            5329               1     421.049E-06     398.324E-06    -201.968E-06    -191.817E-06
            5330               1     178.435E-06     155.774E-06     94.5184E-06     62.0908E-06
            5331               1     417.259E-06     303.421E-06    -178.282E-06    -152.636E-06
            5332               1     294.960E-06     503.646E-06     3.92666E-06     17.6286E-06
            5333               1     52.1038E-03     52.4362E-03    -15.4974E-03    -15.5122E-03
            5334               1     54.3982E-03     71.4442E-03    -20.7574E-03    -19.1507E-03
            5335               1     67.7275E-03     50.9250E-03    -21.9972E-03    -20.5981E-03
            5336               1     45.6500E-03     51.6765E-03    -20.8660E-03    -20.9360E-03
            5337               1     42.1485E-03     39.5474E-03    -21.3952E-03    -20.8124E-03
            5338               1     37.7397E-03     37.1558E-03    -21.7404E-03    -20.6154E-03
            5339               1     36.8087E-03     38.2633E-03    -21.1870E-03    -20.7703E-03
            5340               1     62.6222E-03     63.2536E-03    -5.85788E-03    -5.87270E-03
            5341               1     54.5586E-03     81.0324E-03    -5.57830E-03    -4.44274E-03
            5342               1     72.5757E-03     48.5002E-03    -6.67464E-03    -6.24959E-03
            5343               1     42.1277E-03     53.2413E-03    -6.01833E-03    -5.91731E-03
            5344               1     30.0989E-03     25.9288E-03    -6.44819E-03    -5.11430E-03
            5345               1     14.8704E-03     20.5400E-03    -6.32629E-03    -5.57573E-03
            5346               1     12.5065E-03     14.3204E-03    -5.81323E-03    -5.43780E-03
            5347               1     76.4472E-03     77.2967E-03     4.11510E-03     4.10028E-03
            5348               1     64.9004E-03     95.6784E-03     10.0094E-03     11.6494E-03
            5349               1     88.8332E-03     60.8224E-03     9.46450E-03     11.2215E-03
            5350               1     53.3346E-03     63.7147E-03     11.4621E-03     11.1769E-03
            5351               1     42.2632E-03     38.9887E-03     11.6235E-03     11.3711E-03
            5352               1     25.4623E-03     31.9878E-03     11.4793E-03     11.9867E-03
            5353               1     23.2470E-03     20.5462E-03     11.0489E-03     11.2586E-03
            5354               1     89.8497E-03     90.8245E-03     13.7419E-03     13.7271E-03
            5355               1     87.7612E-03     121.968E-03     29.5849E-03     32.8966E-03
            5356               1     107.992E-03     80.0210E-03     28.9238E-03     30.6911E-03
            5357               1     75.4833E-03     84.4704E-03     29.7477E-03     28.7839E-03
            5358               1     65.0701E-03     63.5351E-03     29.3540E-03     29.2517E-03
            5359               1     57.7563E-03     58.5864E-03     30.1724E-03     28.9044E-03
            5360               1     55.8252E-03     52.2372E-03     30.7478E-03     29.9021E-03
            5361               1     100.427E-03     101.442E-03     22.3665E-03     22.3517E-03
            5362               1     120.969E-03     146.231E-03     54.0933E-03     52.8667E-03
            5363               1     139.496E-03     113.842E-03     51.4967E-03     50.5979E-03
            5364               1     102.127E-03     118.448E-03     49.5901E-03     52.2104E-03
            5365               1     93.4921E-03     94.5129E-03     47.6080E-03     49.9499E-03
            5366               1     85.1831E-03     86.2672E-03     47.5868E-03     46.9122E-03
            5367               1     81.1544E-03     79.4040E-03     45.6824E-03     45.5922E-03
            5368               1     106.686E-03     107.666E-03     29.4012E-03     29.3864E-03
            5369               1     172.481E-03     184.287E-03     80.6737E-03     76.6427E-03
            5370               1     176.085E-03     158.033E-03     81.7761E-03     79.6559E-03
            5371               1     135.681E-03     148.197E-03     70.7770E-03     74.4505E-03
            5372               1     133.233E-03     129.996E-03     71.7976E-03     71.6292E-03
            5373               1     121.044E-03     125.079E-03     69.2251E-03     70.9100E-03
            5374               1     106.375E-03     109.661E-03     61.3671E-03     63.1038E-03
            5431               1     767.881E-06     877.938E-06    -272.377E-06    -281.716E-06
            5432               1     726.712E-06     825.405E-06    -323.872E-06    -318.814E-06
            5433               1     699.535E-06     795.236E-06    -326.794E-06    -332.929E-06
            5434               1     692.190E-06     784.161E-06    -342.693E-06    -342.971E-06
            5435               1     677.856E-06     768.885E-06    -342.677E-06    -346.392E-06
            5436               1     666.048E-06     754.866E-06    -345.168E-06    -346.245E-06
            5437               1     650.611E-06     738.421E-06    -342.612E-06    -345.355E-06
            5438               1     637.423E-06     722.536E-06    -341.856E-06    -343.356E-06
            5439               1     623.441E-06     706.100E-06    -339.405E-06    -341.724E-06
            5440               1     612.204E-06     691.046E-06    -338.392E-06    -340.191E-06
            5441               1     601.436E-06     675.844E-06    -336.689E-06    -338.797E-06
            5442               1     593.648E-06     662.937E-06    -336.117E-06    -338.099E-06
            5443               1     586.151E-06     648.848E-06    -334.767E-06    -336.719E-06
            5444               1     583.029E-06     638.953E-06    -335.095E-06    -336.963E-06
            5445               1     577.410E-06     623.602E-06    -333.056E-06    -334.177E-06
            5446               1     577.904E-06     620.778E-06    -333.624E-06    -337.284E-06
            5447               1     570.790E-06     600.470E-06    -328.811E-06    -330.457E-06
            5448               1     563.019E-06     623.923E-06    -321.376E-06    -345.042E-06
            5449               1     509.955E-06     641.391E-06    -273.000E-06    -349.892E-06
            5450               1     795.843E-06     864.596E-06    -331.519E-06    -320.690E-06
            5451               1     773.171E-06     844.838E-06    -343.014E-06    -355.320E-06
            5452               1     743.715E-06     810.461E-06    -358.925E-06    -359.962E-06
            5453               1     727.820E-06     799.512E-06    -356.398E-06    -366.716E-06
            5454               1     712.369E-06     776.081E-06    -358.821E-06    -361.349E-06
            5455               1     692.675E-06     761.712E-06    -353.315E-06    -361.346E-06
            5456               1     678.794E-06     741.564E-06    -353.133E-06    -356.619E-06
            5457               1     660.923E-06     726.335E-06    -348.988E-06    -355.641E-06
            5458               1     648.537E-06     709.141E-06    -348.461E-06    -352.857E-06
            5459               1     634.652E-06     694.692E-06    -346.108E-06    -351.932E-06
            5460               1     624.467E-06     680.641E-06    -345.540E-06    -350.650E-06
            5461               1     614.810E-06     667.507E-06    -344.482E-06    -349.801E-06
            5462               1     607.624E-06     656.658E-06    -344.061E-06    -349.481E-06
            5463               1     601.700E-06     644.539E-06    -343.668E-06    -348.392E-06
            5464               1     598.492E-06     638.010E-06    -343.867E-06    -349.119E-06
            5465               1     595.114E-06     623.361E-06    -343.158E-06    -345.992E-06
            5466               1     589.599E-06     631.712E-06    -340.381E-06    -354.000E-06
            5467               1     577.755E-06     626.540E-06    -332.117E-06    -355.475E-06
            5468               1     627.347E-06     632.274E-06    -360.462E-06    -364.304E-06
            5469               1     846.883E-06     870.362E-06    -338.719E-06    -345.095E-06
            5470               1     782.822E-06     834.545E-06    -359.296E-06    -367.239E-06
            5471               1     794.628E-06     841.376E-06    -377.239E-06    -389.482E-06
            5472               1     764.916E-06     804.023E-06    -374.286E-06    -377.638E-06
            5473               1     743.588E-06     790.872E-06    -367.580E-06    -379.006E-06
            5474               1     724.282E-06     762.321E-06    -365.309E-06    -369.557E-06
            5475               1     702.368E-06     747.224E-06    -359.045E-06    -368.813E-06
            5476               1     688.071E-06     726.256E-06    -358.472E-06    -363.975E-06
            5477               1     671.032E-06     712.493E-06    -355.100E-06    -363.563E-06
            5478               1     659.363E-06     696.767E-06    -354.893E-06    -361.475E-06
            5479               1     647.320E-06     684.581E-06    -353.631E-06    -361.185E-06
            5480               1     637.590E-06     672.813E-06    -353.132E-06    -360.525E-06
            5481               1     630.116E-06     662.493E-06    -353.307E-06    -360.304E-06
            5482               1     622.754E-06     654.235E-06    -352.642E-06    -360.390E-06
            5483               1     618.950E-06     646.252E-06    -353.437E-06    -360.501E-06
            5484               1     619.825E-06     640.333E-06    -356.060E-06    -360.209E-06
            5485               1     615.662E-06     628.944E-06    -354.478E-06    -357.973E-06
            5486               1     651.260E-06     618.069E-06    -375.520E-06    -355.593E-06
            5487               1     667.507E-06     538.448E-06    -385.206E-06    -309.698E-06
            5488               1     720.165E-06     778.800E-06    -273.757E-06    -314.379E-06
            5489               1     829.916E-06     844.131E-06    -376.591E-06    -383.342E-06
            5490               1     803.182E-06     821.223E-06    -374.546E-06    -381.111E-06
            5491               1     795.472E-06     815.784E-06    -379.489E-06    -390.574E-06
            5492               1     769.604E-06     781.742E-06    -374.602E-06    -378.862E-06
            5493               1     746.483E-06     767.083E-06    -368.677E-06    -379.639E-06
            5494               1     729.184E-06     741.927E-06    -367.587E-06    -372.990E-06
            5495               1     709.830E-06     728.858E-06    -363.673E-06    -373.436E-06
            5496               1     697.028E-06     711.245E-06    -363.957E-06    -370.595E-06
            5497               1     682.894E-06     700.109E-06    -362.419E-06    -371.048E-06
            5498               1     672.032E-06     687.536E-06    -362.474E-06    -370.123E-06
            5499               1     662.549E-06     678.137E-06    -362.598E-06    -370.375E-06
            5500               1     652.805E-06     669.355E-06    -361.902E-06    -370.425E-06
            5501               1     647.529E-06     662.655E-06    -363.211E-06    -370.936E-06
            5502               1     641.105E-06     656.566E-06    -363.065E-06    -371.148E-06
            5503               1     636.729E-06     654.517E-06    -363.457E-06    -372.978E-06
            5504               1     661.800E-06     637.474E-06    -380.252E-06    -365.160E-06
            5505               1     660.232E-06     592.515E-06    -380.535E-06    -340.954E-06
            5506               1     656.967E-06     641.046E-06    -379.283E-06    -369.844E-06
            5507               1     705.620E-06     710.005E-06    -303.578E-06    -306.058E-06
            5508               1     787.415E-06     780.601E-06    -335.315E-06    -345.846E-06
            5509               1     813.112E-06     802.028E-06    -368.950E-06    -376.511E-06
            5510               1     799.231E-06     783.481E-06    -370.131E-06    -374.008E-06
            5511               1     783.114E-06     775.022E-06    -371.569E-06    -381.397E-06
            5512               1     766.261E-06     750.957E-06    -372.202E-06    -376.510E-06
            5513               1     747.752E-06     740.561E-06    -370.168E-06    -379.598E-06
            5514               1     734.858E-06     722.442E-06    -371.582E-06    -377.078E-06
            5515               1     720.012E-06     713.179E-06    -370.551E-06    -378.950E-06
            5516               1     709.029E-06     700.326E-06    -371.563E-06    -378.105E-06
            5517               1     697.954E-06     692.127E-06    -371.670E-06    -379.103E-06
            5518               1     687.725E-06     683.207E-06    -371.799E-06    -379.173E-06
            5519               1     680.254E-06     676.543E-06    -372.846E-06    -379.612E-06
            5520               1     670.740E-06     671.129E-06    -372.152E-06    -380.375E-06
            5521               1     665.872E-06     667.342E-06    -373.509E-06    -380.915E-06
            5522               1     662.197E-06     664.641E-06    -374.952E-06    -381.820E-06
            5523               1     652.707E-06     663.367E-06    -372.745E-06    -381.977E-06
            5524               1     687.230E-06     657.878E-06    -396.085E-06    -378.115E-06
            5525               1     702.406E-06     570.258E-06    -404.846E-06    -329.189E-06
            5526               1     673.951E-06     616.536E-06    -266.298E-06    -261.560E-06
            5527               1     739.111E-06     695.688E-06    -312.737E-06    -315.700E-06
            5528               1     784.975E-06     736.922E-06    -339.442E-06    -342.259E-06
            5529               1     790.345E-06     748.617E-06    -356.926E-06    -363.219E-06
            5530               1     787.672E-06     742.075E-06    -366.257E-06    -369.091E-06
            5531               1     777.667E-06     740.093E-06    -371.225E-06    -378.232E-06
            5532               1     768.512E-06     726.908E-06    -375.740E-06    -379.262E-06
            5533               1     756.295E-06     721.583E-06    -377.321E-06    -383.810E-06
            5534               1     746.422E-06     710.217E-06    -379.731E-06    -384.105E-06
            5535               1     735.340E-06     704.047E-06    -380.646E-06    -386.379E-06
            5536               1     725.492E-06     695.657E-06    -381.768E-06    -386.802E-06
            5537               1     716.290E-06     689.818E-06    -382.666E-06    -387.715E-06
            5538               1     706.841E-06     684.560E-06    -382.952E-06    -388.482E-06
            5539               1     699.592E-06     679.496E-06    -383.834E-06    -388.280E-06
            5540               1     690.923E-06     678.840E-06    -383.470E-06    -390.265E-06
            5541               1     683.598E-06     673.278E-06    -383.318E-06    -388.134E-06
            5542               1     669.380E-06     689.599E-06    -378.428E-06    -398.127E-06
            5543               1     646.181E-06     701.607E-06    -366.643E-06    -404.684E-06
            5544               1     698.722E-06     722.439E-06    -401.431E-06    -413.628E-06
            5545               1     543.480E-06     459.137E-06    -211.568E-06    -213.709E-06
            5546               1     689.495E-06     600.744E-06    -282.720E-06    -280.043E-06
            5547               1     740.023E-06     664.214E-06    -317.332E-06    -319.774E-06
            5548               1     777.852E-06     699.916E-06    -346.408E-06    -347.294E-06
            5549               1     789.346E-06     718.702E-06    -363.988E-06    -366.560E-06
            5550               1     792.320E-06     720.231E-06    -374.752E-06    -375.963E-06
            5551               1     788.328E-06     722.408E-06    -382.011E-06    -384.516E-06
            5552               1     781.682E-06     716.012E-06    -386.266E-06    -387.798E-06
            5553               1     773.142E-06     712.695E-06    -389.388E-06    -391.659E-06
            5554               1     764.137E-06     705.998E-06    -391.299E-06    -393.083E-06
            5555               1     754.762E-06     701.617E-06    -392.811E-06    -394.834E-06
            5556               1     745.720E-06     696.835E-06    -393.833E-06    -395.785E-06
            5557               1     736.404E-06     692.734E-06    -394.398E-06    -396.158E-06
            5558               1     728.578E-06     691.186E-06    -395.301E-06    -397.409E-06
            5559               1     718.504E-06     686.037E-06    -394.417E-06    -395.591E-06
            5560               1     711.386E-06     692.281E-06    -394.508E-06    -399.662E-06
            5561               1     697.204E-06     682.483E-06    -389.620E-06    -393.500E-06
            5562               1     680.017E-06     717.629E-06    -380.172E-06    -410.492E-06
            5563               1     604.197E-06     755.548E-06    -319.331E-06    -420.285E-06
            5564               1     84.1827E-03     86.8644E-03     13.9213E-03     14.3136E-03
            5565               1     63.4027E-03     66.0567E-03     16.7219E-03     16.5418E-03
            5566               1     57.5355E-03     60.3488E-03     12.4312E-03     12.6037E-03
            5567               1     54.3408E-03     57.2651E-03     12.4995E-03     12.4503E-03
            5568               1     52.4891E-03     55.4686E-03     10.6924E-03     10.7595E-03
            5569               1     51.4075E-03     54.4547E-03     10.3183E-03     10.2922E-03
            5570               1     50.6638E-03     53.7112E-03     9.19885E-03     9.21448E-03
            5571               1     50.1301E-03     53.1977E-03     8.67525E-03     8.65321E-03
            5572               1     49.7151E-03     52.7477E-03     7.84345E-03     7.83291E-03
            5573               1     49.3134E-03     52.3418E-03     7.28115E-03     7.26252E-03
            5574               1     48.9895E-03     51.9459E-03     6.61546E-03     6.58520E-03
            5575               1     48.5970E-03     51.5383E-03     6.04680E-03     6.02897E-03
            5576               1     48.3400E-03     51.1369E-03     5.50537E-03     5.44387E-03
            5577               1     47.9698E-03     50.7484E-03     4.91812E-03     4.89970E-03
            5578               1     47.9190E-03     50.4102E-03     4.50144E-03     4.38056E-03
            5579               1     47.7125E-03     50.2311E-03     3.83046E-03     3.83602E-03
            5580               1     48.2725E-03     50.2793E-03     3.57549E-03     3.35842E-03
            5581               1     48.5698E-03     50.8857E-03     2.57146E-03     2.73627E-03
            5582               1     50.8677E-03     52.5242E-03     2.56748E-03     2.26750E-03
            5583               1     69.1149E-03     70.7789E-03     2.54099E-03     3.34759E-03
            5584               1     69.1975E-03     71.0405E-03     12.6319E-03     12.9509E-03
            5585               1     58.1156E-03     60.5468E-03     12.4697E-03     12.5359E-03
            5586               1     56.6097E-03     59.0165E-03     11.2893E-03     11.4757E-03
            5587               1     53.6876E-03     56.2250E-03     10.8946E-03     10.8849E-03
            5588               1     52.9650E-03     55.5066E-03     9.78250E-03     9.85191E-03
            5589               1     51.8231E-03     54.3979E-03     9.26912E-03     9.22584E-03
            5590               1     51.4263E-03     53.9857E-03     8.40637E-03     8.40080E-03
            5591               1     50.7907E-03     53.3631E-03     7.86443E-03     7.81580E-03
            5592               1     50.4858E-03     53.0135E-03     7.18445E-03     7.13068E-03
            5593               1     49.9811E-03     52.5229E-03     6.64173E-03     6.59507E-03
            5594               1     49.7186E-03     52.1664E-03     6.09676E-03     5.98733E-03
            5595               1     49.2320E-03     51.7186E-03     5.53640E-03     5.48449E-03
            5596               1     49.0912E-03     51.3892E-03     5.10967E-03     4.90370E-03
            5597               1     48.6477E-03     51.0692E-03     4.48618E-03     4.43345E-03
            5598               1     48.9252E-03     50.9844E-03     4.19201E-03     3.84216E-03
            5599               1     48.7235E-03     51.1541E-03     3.41709E-03     3.45495E-03
            5600               1     50.2967E-03     52.0856E-03     3.25637E-03     2.83592E-03
            5601               1     50.9671E-03     53.6368E-03     2.26962E-03     2.71733E-03
            5602               1     60.2391E-03     62.5297E-03     1.01221E-03     1.32077E-03
            5603               1     61.4034E-03     63.4836E-03     4.93942E-03     5.65719E-03
            5604               1     61.1623E-03     63.0227E-03     10.0307E-03     10.3219E-03
            5605               1     55.9658E-03     58.1463E-03     9.88491E-03     10.0272E-03
            5606               1     55.6640E-03     57.7393E-03     9.79980E-03     9.94732E-03
            5607               1     53.5697E-03     55.7115E-03     9.31922E-03     9.30189E-03
            5608               1     53.2896E-03     55.3851E-03     8.69047E-03     8.71824E-03
            5609               1     52.2634E-03     54.3878E-03     8.16995E-03     8.11054E-03
            5610               1     52.0068E-03     54.0901E-03     7.56541E-03     7.52067E-03
            5611               1     51.3424E-03     53.4607E-03     7.06865E-03     7.00704E-03
            5612               1     51.1028E-03     53.1593E-03     6.56216E-03     6.45969E-03
            5613               1     50.5404E-03     52.6646E-03     6.07267E-03     6.01064E-03
            5614               1     50.3689E-03     52.3720E-03     5.66208E-03     5.47648E-03
            5615               1     49.8314E-03     51.9943E-03     5.14795E-03     5.07660E-03
            5616               1     49.9113E-03     51.8253E-03     4.84347E-03     4.53163E-03
            5617               1     49.4919E-03     51.7700E-03     4.31653E-03     4.24864E-03
            5618               1     50.3647E-03     52.1303E-03     4.15420E-03     3.75294E-03
            5619               1     50.5778E-03     53.0110E-03     3.87592E-03     3.88520E-03
            5620               1     53.6481E-03     55.1911E-03     3.83484E-03     3.84490E-03
            5621               1     56.2927E-03     57.9967E-03    -1.42437E-03    -627.122E-06
            5622               1     57.2460E-03     59.2573E-03     3.45480E-03     3.73923E-03
            5623               1     57.1944E-03     59.1410E-03     5.49658E-03     6.00089E-03
            5624               1     57.4691E-03     59.2202E-03     8.26153E-03     8.46685E-03
            5625               1     55.0180E-03     56.8316E-03     8.14073E-03     8.21888E-03
            5626               1     55.0225E-03     56.7014E-03     8.34656E-03     8.41096E-03
            5627               1     53.6054E-03     55.3193E-03     7.91636E-03     7.86886E-03
            5628               1     53.4431E-03     55.0803E-03     7.60143E-03     7.57570E-03
            5629               1     52.5813E-03     54.2673E-03     7.17908E-03     7.11443E-03
            5630               1     52.3834E-03     54.0165E-03     6.80903E-03     6.73102E-03
            5631               1     51.7488E-03     53.4574E-03     6.42065E-03     6.36078E-03
            5632               1     51.5828E-03     53.2170E-03     6.09164E-03     5.95804E-03
            5633               1     51.0211E-03     52.8086E-03     5.71182E-03     5.65168E-03
            5634               1     50.9918E-03     52.6287E-03     5.45011E-03     5.23562E-03
            5635               1     50.4886E-03     52.4424E-03     5.10819E-03     5.02866E-03
            5636               1     50.8645E-03     52.4980E-03     4.97896E-03     4.68297E-03
            5637               1     50.7190E-03     52.8665E-03     4.96297E-03     4.81056E-03
            5638               1     52.1169E-03     53.6804E-03     5.14615E-03     4.96250E-03
            5639               1     53.8262E-03     55.3817E-03     6.68153E-03     6.21867E-03
            5640               1     51.5591E-03     53.6436E-03    -2.26456E-03    -2.07457E-03
            5641               1     54.1332E-03     55.8066E-03     670.661E-06     1.33918E-03
            5642               1     55.2798E-03     57.1115E-03     4.21709E-03     4.41802E-03
            5643               1     55.3694E-03     56.9377E-03     5.22752E-03     5.44731E-03
            5644               1     55.7599E-03     57.1505E-03     6.85664E-03     6.93371E-03
            5645               1     54.5190E-03     55.8785E-03     6.73520E-03     6.71041E-03
            5646               1     54.5063E-03     55.7162E-03     7.03147E-03     7.01133E-03
            5647               1     53.5442E-03     54.8078E-03     6.75965E-03     6.69849E-03
            5648               1     53.4055E-03     54.5984E-03     6.68173E-03     6.62325E-03
            5649               1     52.7139E-03     53.9813E-03     6.43328E-03     6.37973E-03
            5650               1     52.5753E-03     53.7919E-03     6.27993E-03     6.19259E-03
            5651               1     52.0196E-03     53.3620E-03     6.05792E-03     6.01770E-03
            5652               1     51.9551E-03     53.2149E-03     5.91515E-03     5.79200E-03
            5653               1     51.4589E-03     52.9668E-03     5.73741E-03     5.69863E-03
            5654               1     51.5796E-03     52.9194E-03     5.67604E-03     5.51322E-03
            5655               1     51.2194E-03     52.9725E-03     5.73605E-03     5.63599E-03
            5656               1     51.7247E-03     53.1867E-03     5.98000E-03     5.81073E-03
            5657               1     52.1720E-03     53.8604E-03     7.01307E-03     6.63579E-03
            5658               1     53.0934E-03     54.7578E-03     8.30346E-03     8.20278E-03
            5659               1     48.8607E-03     50.2900E-03    -3.89133E-03    -3.06331E-03
            5660               1     50.6966E-03     52.8132E-03    -168.577E-06    -84.1977E-06
            5661               1     53.2554E-03     54.5720E-03     1.64510E-03     1.92038E-03
            5662               1     54.3191E-03     55.6770E-03     3.99099E-03     4.02622E-03
            5663               1     54.5078E-03     55.5601E-03     4.45980E-03     4.42078E-03
            5664               1     54.6778E-03     55.5002E-03     5.57600E-03     5.51798E-03
            5665               1     53.9915E-03     54.8465E-03     5.59893E-03     5.53566E-03
            5666               1     53.9299E-03     54.6781E-03     5.99156E-03     5.93200E-03
            5667               1     53.2801E-03     54.1014E-03     5.95191E-03     5.90353E-03
            5668               1     53.1847E-03     53.9597E-03     6.08519E-03     6.02540E-03
            5669               1     52.6651E-03     53.5349E-03     6.05613E-03     6.02940E-03
            5670               1     52.6110E-03     53.4366E-03     6.11443E-03     6.05240E-03
            5671               1     52.1744E-03     53.1697E-03     6.12044E-03     6.11719E-03
            5672               1     52.2067E-03     53.1240E-03     6.19326E-03     6.13910E-03
            5673               1     51.8241E-03     53.0419E-03     6.34505E-03     6.33913E-03
            5674               1     51.9632E-03     53.0714E-03     6.59417E-03     6.56251E-03
            5675               1     51.7688E-03     53.2002E-03     7.28162E-03     7.13528E-03
            5676               1     51.8943E-03     53.3524E-03     8.25483E-03     8.17999E-03
            5677               1     52.5903E-03     53.6760E-03     10.2777E-03     9.75213E-03
            5678               1     44.7186E-03     47.2798E-03    -4.44058E-03    -4.71604E-03
            5679               1     49.0235E-03     49.9705E-03    -2.02706E-03    -1.69281E-03
            5680               1     50.9919E-03     52.6445E-03     560.956E-06     500.473E-06
            5681               1     53.0322E-03     53.7940E-03     1.47779E-03     1.26764E-03
            5682               1     53.4425E-03     53.9116E-03     3.14114E-03     2.96640E-03
            5683               1     53.6042E-03     54.0377E-03     3.62076E-03     3.52248E-03
            5684               1     53.6396E-03     53.9398E-03     4.57729E-03     4.48327E-03
            5685               1     53.2606E-03     53.6332E-03     4.85377E-03     4.80520E-03
            5686               1     53.2320E-03     53.5574E-03     5.37694E-03     5.32362E-03
            5687               1     52.8229E-03     53.2211E-03     5.59243E-03     5.57171E-03
            5688               1     52.8095E-03     53.1822E-03     5.92812E-03     5.89406E-03
            5689               1     52.4635E-03     52.9377E-03     6.14495E-03     6.15588E-03
            5690               1     52.4933E-03     52.9317E-03     6.42593E-03     6.42365E-03
            5691               1     52.1934E-03     52.8128E-03     6.72490E-03     6.77340E-03
            5692               1     52.2445E-03     52.8229E-03     7.07341E-03     7.13566E-03
            5693               1     51.9467E-03     52.7916E-03     7.65259E-03     7.70322E-03
            5694               1     51.8470E-03     52.7606E-03     8.36377E-03     8.47451E-03
            5695               1     51.4782E-03     52.5369E-03     9.62062E-03     9.51920E-03
            5696               1     51.0637E-03     52.4090E-03     11.5479E-03     11.3930E-03
            5697               1     43.3119E-03     43.3311E-03    -6.09733E-03    -5.30080E-03
            5698               1     46.0435E-03     48.6895E-03    -3.01155E-03    -3.26580E-03
            5699               1     50.3231E-03     50.7681E-03    -1.94509E-03    -2.60950E-03
            5700               1     50.8422E-03     50.8794E-03    -44.4633E-06    -463.556E-06
            5701               1     52.0787E-03     52.0099E-03     960.153E-06     766.311E-06
            5702               1     52.2606E-03     52.0871E-03     2.39389E-03     2.22530E-03
            5703               1     52.4347E-03     52.3372E-03     3.11486E-03     3.05717E-03
            5704               1     52.5282E-03     52.4011E-03     4.08028E-03     4.01671E-03
            5705               1     52.3698E-03     52.3056E-03     4.61119E-03     4.59273E-03
            5706               1     52.4388E-03     52.3637E-03     5.27889E-03     5.25248E-03
            5707               1     52.2323E-03     52.2120E-03     5.73470E-03     5.74321E-03
            5708               1     52.3023E-03     52.2669E-03     6.26896E-03     6.27609E-03
            5709               1     52.1172E-03     52.1623E-03     6.75129E-03     6.80097E-03
            5710               1     52.1792E-03     52.2021E-03     7.28096E-03     7.35874E-03
            5711               1     51.9879E-03     52.1417E-03     7.92696E-03     8.03324E-03
            5712               1     51.9258E-03     52.1084E-03     8.61836E-03     8.81237E-03
            5713               1     51.5511E-03     51.8977E-03     9.62887E-03     9.78032E-03
            5714               1     51.0573E-03     51.6529E-03     10.8390E-03     11.0826E-03
            5715               1     49.9838E-03     50.6770E-03     12.4913E-03     12.5133E-03
            5716               1     38.6512E-03     44.2390E-03    -6.99165E-03    -7.98841E-03
            5717               1     47.3278E-03     47.0506E-03    -5.89454E-03    -7.53292E-03
            5718               1     47.2670E-03     46.5245E-03    -4.02531E-03    -4.82184E-03
            5719               1     49.3335E-03     48.5413E-03    -2.26730E-03    -2.59167E-03
            5720               1     49.7414E-03     49.0114E-03    -472.790E-06    -723.327E-06
            5721               1     50.5731E-03     49.9549E-03     834.975E-06     762.914E-06
            5722               1     50.9205E-03     50.3353E-03     2.22244E-03     2.14716E-03
            5723               1     51.1774E-03     50.6550E-03     3.15220E-03     3.13631E-03
            5724               1     51.4177E-03     50.9080E-03     4.17289E-03     4.14880E-03
            5725               1     51.4419E-03     50.9621E-03     4.89432E-03     4.89688E-03
            5726               1     51.6006E-03     51.1221E-03     5.69420E-03     5.69377E-03
            5727               1     51.5539E-03     51.0940E-03     6.36201E-03     6.38935E-03
            5728               1     51.6532E-03     51.1799E-03     7.09443E-03     7.13736E-03
            5729               1     51.5813E-03     51.1239E-03     7.85710E-03     7.93090E-03
            5730               1     51.5876E-03     51.1099E-03     8.67512E-03     8.80984E-03
            5731               1     51.4221E-03     50.9566E-03     9.69243E-03     9.84647E-03
            5732               1     51.1674E-03     50.7356E-03     10.7795E-03     11.0501E-03
            5733               1     50.5534E-03     50.1703E-03     12.1912E-03     12.4708E-03
            5734               1     49.7184E-03     49.5587E-03     13.8562E-03     14.1855E-03
            5735               1     46.0444E-03     41.1727E-03    -10.3686E-03    -13.3274E-03
            5736               1     44.2193E-03     41.4917E-03    -9.57699E-03    -10.4108E-03
            5737               1     45.3547E-03     43.4101E-03    -6.08466E-03    -6.38106E-03
            5738               1     46.2668E-03     44.8195E-03    -3.96101E-03    -4.15369E-03
            5739               1     47.4856E-03     46.3135E-03    -1.82721E-03    -1.88429E-03
            5740               1     48.3532E-03     47.3110E-03    -44.8894E-06    -95.6831E-06
            5741               1     49.1099E-03     48.1438E-03     1.36608E-03     1.35602E-03
            5742               1     49.6978E-03     48.7717E-03     2.72990E-03     2.71603E-03
            5743               1     50.0744E-03     49.1632E-03     3.73403E-03     3.73356E-03
            5744               1     50.4156E-03     49.5246E-03     4.78270E-03     4.77982E-03
            5745               1     50.5695E-03     49.6682E-03     5.61462E-03     5.62000E-03
            5746               1     50.7327E-03     49.8378E-03     6.51346E-03     6.52288E-03
            5747               1     50.7684E-03     49.8289E-03     7.36705E-03     7.38469E-03
            5748               1     50.7954E-03     49.8308E-03     8.29726E-03     8.33608E-03
            5749               1     50.7476E-03     49.6719E-03     9.35426E-03     9.39651E-03
            5750               1     50.6189E-03     49.4601E-03     10.5046E-03     10.6010E-03
            5751               1     50.4243E-03     49.0501E-03     11.9403E-03     12.0314E-03
            5752               1     50.0087E-03     48.4812E-03     13.4807E-03     13.6644E-03
            5753               1     49.3753E-03     47.5476E-03     15.4612E-03     15.6417E-03
            5754               1     63.0158E-03     65.7595E-03     10.3404E-03     10.3134E-03
            5755               1     45.9785E-03     48.2137E-03     12.8895E-03     12.6418E-03
            5756               1     40.7695E-03     43.0252E-03     9.91251E-03     10.0163E-03
            5757               1     38.0967E-03     40.3299E-03     10.3309E-03     10.2659E-03
            5758               1     36.2953E-03     38.5526E-03     9.18898E-03     9.23684E-03
            5759               1     35.3409E-03     37.6087E-03     9.17873E-03     9.15192E-03
            5760               1     34.5123E-03     36.7847E-03     8.48835E-03     8.50146E-03
            5761               1     33.9802E-03     36.2546E-03     8.28657E-03     8.26890E-03
            5762               1     33.4599E-03     35.7185E-03     7.76780E-03     7.76191E-03
            5763               1     33.0214E-03     35.2766E-03     7.48510E-03     7.47190E-03
            5764               1     32.6087E-03     34.8209E-03     7.07459E-03     7.05451E-03
            5765               1     32.1796E-03     34.3885E-03     6.76469E-03     6.75369E-03
            5766               1     31.8581E-03     33.9696E-03     6.45606E-03     6.41412E-03
            5767               1     31.4621E-03     33.5809E-03     6.13739E-03     6.12923E-03
            5768               1     31.3564E-03     33.2694E-03     5.95337E-03     5.87027E-03
            5769               1     31.1151E-03     33.1002E-03     5.60393E-03     5.61958E-03
            5770               1     31.5723E-03     33.1764E-03     5.59121E-03     5.44318E-03
            5771               1     31.7355E-03     33.6997E-03     5.05022E-03     5.19210E-03
            5772               1     33.6928E-03     35.1407E-03     5.28742E-03     5.09227E-03
            5773               1     51.3135E-03     51.8994E-03     1.60056E-03     2.11063E-03
            5774               1     50.1019E-03     51.4467E-03     10.1359E-03     10.1928E-03
            5775               1     41.0860E-03     42.8887E-03     10.3315E-03     10.2811E-03
            5776               1     39.4787E-03     41.2880E-03     9.65413E-03     9.76378E-03
            5777               1     37.1072E-03     38.9696E-03     9.62572E-03     9.58643E-03
            5778               1     36.2709E-03     38.1501E-03     8.92618E-03     8.97597E-03
            5779               1     35.2895E-03     37.1669E-03     8.73282E-03     8.69264E-03
            5780               1     34.7826E-03     36.6597E-03     8.17639E-03     8.17579E-03
            5781               1     34.1712E-03     36.0488E-03     7.90330E-03     7.86693E-03
            5782               1     33.7729E-03     35.6240E-03     7.46368E-03     7.42889E-03
            5783               1     33.2477E-03     35.1127E-03     7.15868E-03     7.12720E-03
            5784               1     32.9078E-03     34.7013E-03     6.82042E-03     6.74697E-03
            5785               1     32.3924E-03     34.2317E-03     6.49495E-03     6.46456E-03
            5786               1     32.1783E-03     33.8600E-03     6.26385E-03     6.12408E-03
            5787               1     31.7053E-03     33.5202E-03     5.90584E-03     5.88461E-03
            5788               1     31.8679E-03     33.3692E-03     5.81101E-03     5.57433E-03
            5789               1     31.6140E-03     33.4814E-03     5.37992E-03     5.43915E-03
            5790               1     32.8581E-03     34.1783E-03     5.43535E-03     5.16430E-03
            5791               1     33.3861E-03     35.5126E-03     4.92825E-03     5.29289E-03
            5792               1     43.2180E-03     44.9064E-03     524.214E-06     833.209E-06
            5793               1     43.5209E-03     44.7854E-03     4.31221E-03     4.83101E-03
            5794               1     42.9839E-03     44.2658E-03     8.70199E-03     8.84933E-03
            5795               1     38.7654E-03     40.3180E-03     8.89939E-03     8.95562E-03
            5796               1     38.3277E-03     39.8206E-03     9.00223E-03     9.09828E-03
            5797               1     36.6195E-03     38.1448E-03     8.83974E-03     8.80836E-03
            5798               1     36.2300E-03     37.7325E-03     8.44319E-03     8.46509E-03
            5799               1     35.3235E-03     36.8343E-03     8.17475E-03     8.12669E-03
            5800               1     34.9756E-03     36.4618E-03     7.76640E-03     7.73825E-03
            5801               1     34.3248E-03     35.8346E-03     7.47470E-03     7.43051E-03
            5802               1     34.0031E-03     35.4637E-03     7.13559E-03     7.06734E-03
            5803               1     33.4177E-03     34.9376E-03     6.83448E-03     6.79419E-03
            5804               1     33.1619E-03     34.5718E-03     6.57766E-03     6.45234E-03
            5805               1     32.5928E-03     34.1463E-03     6.26151E-03     6.22208E-03
            5806               1     32.5583E-03     33.8797E-03     6.11133E-03     5.89886E-03
            5807               1     32.1120E-03     33.7492E-03     5.81066E-03     5.78574E-03
            5808               1     32.7451E-03     33.9345E-03     5.81758E-03     5.54466E-03
            5809               1     32.9476E-03     34.6708E-03     5.77114E-03     5.80676E-03
            5810               1     35.3749E-03     36.4473E-03     5.95091E-03     5.97058E-03
            5811               1     39.5240E-03     40.4732E-03    -1.18346E-03    -613.632E-06
            5812               1     39.5756E-03     40.9741E-03     3.27593E-03     3.52246E-03
            5813               1     39.3433E-03     40.6340E-03     5.40827E-03     5.78586E-03
            5814               1     39.5653E-03     40.7473E-03     7.85190E-03     7.98746E-03
            5815               1     37.5931E-03     38.8427E-03     8.02392E-03     8.06567E-03
            5816               1     37.5485E-03     38.6996E-03     8.27876E-03     8.32416E-03
            5817               1     36.3507E-03     37.5252E-03     8.07965E-03     8.03805E-03
            5818               1     36.1287E-03     37.2483E-03     7.86853E-03     7.85248E-03
            5819               1     35.3253E-03     36.4788E-03     7.61041E-03     7.56181E-03
            5820               1     35.0578E-03     36.1687E-03     7.34443E-03     7.29244E-03
            5821               1     34.4146E-03     35.5850E-03     7.08972E-03     7.04740E-03
            5822               1     34.1668E-03     35.2665E-03     6.85930E-03     6.76955E-03
            5823               1     33.5725E-03     34.7986E-03     6.60835E-03     6.56949E-03
            5824               1     33.4372E-03     34.5145E-03     6.44498E-03     6.29944E-03
            5825               1     32.9026E-03     34.2368E-03     6.23498E-03     6.18865E-03
            5826               1     33.1156E-03     34.1529E-03     6.21220E-03     6.00589E-03
            5827               1     32.9774E-03     34.3976E-03     6.29338E-03     6.19748E-03
            5828               1     34.0888E-03     35.0559E-03     6.59407E-03     6.45138E-03
            5829               1     35.8683E-03     36.6859E-03     7.97839E-03     7.62364E-03
            5830               1     34.9021E-03     36.2673E-03    -1.74778E-03    -1.51685E-03
            5831               1     36.5437E-03     37.5734E-03     1.31804E-03     1.83167E-03
            5832               1     37.3668E-03     38.5890E-03     4.56390E-03     4.74787E-03
            5833               1     37.4771E-03     38.5041E-03     5.78783E-03     5.96395E-03
            5834               1     37.9615E-03     38.8480E-03     7.21857E-03     7.27939E-03
            5835               1     36.9462E-03     37.8254E-03     7.29885E-03     7.28045E-03
            5836               1     36.9708E-03     37.7314E-03     7.55086E-03     7.53768E-03
            5837               1     36.0974E-03     36.9047E-03     7.39229E-03     7.34649E-03
            5838               1     35.9330E-03     36.6817E-03     7.32425E-03     7.28423E-03
            5839               1     35.2489E-03     36.0566E-03     7.14668E-03     7.10671E-03
            5840               1     35.0486E-03     35.8072E-03     7.01980E-03     6.96075E-03
            5841               1     34.4644E-03     35.3227E-03     6.85588E-03     6.82562E-03
            5842               1     34.3101E-03     35.0823E-03     6.74460E-03     6.66169E-03
            5843               1     33.7751E-03     34.7426E-03     6.61924E-03     6.59092E-03
            5844               1     33.7773E-03     34.5747E-03     6.59192E-03     6.47886E-03
            5845               1     33.4006E-03     34.5088E-03     6.66809E-03     6.59711E-03
            5846               1     33.7837E-03     34.6244E-03     6.94198E-03     6.80506E-03
            5847               1     34.3045E-03     35.2450E-03     7.83293E-03     7.55157E-03
            5848               1     35.3579E-03     36.2992E-03     9.05667E-03     8.91711E-03
            5849               1     32.0697E-03     32.8581E-03    -2.78081E-03    -2.14474E-03
            5850               1     33.1174E-03     34.5101E-03     797.840E-06     937.301E-06
            5851               1     35.2238E-03     36.0309E-03     2.88606E-03     3.12312E-03
            5852               1     36.3989E-03     37.2254E-03     5.00513E-03     5.06192E-03
            5853               1     36.6345E-03     37.2487E-03     5.65661E-03     5.64648E-03
            5854               1     37.0263E-03     37.4505E-03     6.56317E-03     6.52538E-03
            5855               1     36.4011E-03     36.8718E-03     6.63168E-03     6.59021E-03
            5856               1     36.4059E-03     36.7843E-03     6.91268E-03     6.87013E-03
            5857               1     35.7656E-03     36.2088E-03     6.86914E-03     6.83356E-03
            5858               1     35.6514E-03     36.0497E-03     6.94006E-03     6.89830E-03
            5859               1     35.1086E-03     35.5830E-03     6.89400E-03     6.87094E-03
            5860               1     34.9909E-03     35.4178E-03     6.90861E-03     6.86684E-03
            5861               1     34.5160E-03     35.0746E-03     6.89210E-03     6.88226E-03
            5862               1     34.4584E-03     34.9333E-03     6.92388E-03     6.88819E-03
            5863               1     34.0435E-03     34.7454E-03     7.02746E-03     7.01150E-03
            5864               1     34.1078E-03     34.6874E-03     7.22340E-03     7.19620E-03
            5865               1     33.9351E-03     34.7394E-03     7.76351E-03     7.64437E-03
            5866               1     34.1979E-03     34.9733E-03     8.62757E-03     8.52983E-03
            5867               1     35.1293E-03     35.5569E-03     10.2938E-03     9.89744E-03
            5868               1     27.8730E-03     29.5495E-03    -3.07926E-03    -3.18867E-03
            5869               1     31.0572E-03     31.5633E-03    -257.277E-06     27.2374E-06
            5870               1     33.0121E-03     34.0227E-03     2.24078E-03     2.25779E-03
            5871               1     34.9133E-03     35.2657E-03     3.44257E-03     3.32184E-03
            5872               1     35.8036E-03     35.9127E-03     4.80572E-03     4.69152E-03
            5873               1     35.9274E-03     36.0465E-03     5.24019E-03     5.18382E-03
            5874               1     36.1746E-03     36.1736E-03     5.96070E-03     5.89299E-03
            5875               1     35.7775E-03     35.8522E-03     6.13884E-03     6.10713E-03
            5876               1     35.7978E-03     35.8246E-03     6.50069E-03     6.46157E-03
            5877               1     35.3634E-03     35.4540E-03     6.61636E-03     6.59851E-03
            5878               1     35.3244E-03     35.3866E-03     6.82830E-03     6.80423E-03
            5879               1     34.9445E-03     35.0877E-03     6.94805E-03     6.94696E-03
            5880               1     34.9140E-03     35.0199E-03     7.11454E-03     7.11433E-03
            5881               1     34.5813E-03     34.8251E-03     7.30299E-03     7.32054E-03
            5882               1     34.5748E-03     34.7717E-03     7.52211E-03     7.56768E-03
            5883               1     34.2721E-03     34.6674E-03     7.93391E-03     7.94504E-03
            5884               1     34.2359E-03     34.6483E-03     8.46468E-03     8.53613E-03
            5885               1     33.9737E-03     34.5031E-03     9.41707E-03     9.33230E-03
            5886               1     34.1051E-03     34.7497E-03     11.0601E-03     10.8905E-03
            5887               1     25.7901E-03     25.5165E-03    -4.00040E-03    -3.38022E-03
            5888               1     27.8926E-03     29.6078E-03    -777.986E-06    -880.377E-06
            5889               1     31.7567E-03     31.8104E-03     909.961E-06     463.857E-06
            5890               1     33.2620E-03     32.9793E-03     2.47568E-03     2.18573E-03
            5891               1     34.3797E-03     34.0777E-03     3.30457E-03     3.18750E-03
            5892               1     34.9583E-03     34.5512E-03     4.41338E-03     4.29175E-03
            5893               1     35.0699E-03     34.7539E-03     4.91058E-03     4.87817E-03
            5894               1     35.2956E-03     34.9416E-03     5.62103E-03     5.57320E-03
            5895               1     35.0984E-03     34.8071E-03     5.95742E-03     5.94436E-03
            5896               1     35.1865E-03     34.8796E-03     6.42268E-03     6.40253E-03
            5897               1     34.9479E-03     34.6903E-03     6.70592E-03     6.70559E-03
            5898               1     34.9908E-03     34.7196E-03     7.05819E-03     7.06322E-03
            5899               1     34.7805E-03     34.5750E-03     7.36814E-03     7.38849E-03
            5900               1     34.8067E-03     34.5875E-03     7.70509E-03     7.76198E-03
            5901               1     34.6125E-03     34.4930E-03     8.14604E-03     8.19415E-03
            5902               1     34.5679E-03     34.4772E-03     8.59575E-03     8.74000E-03
            5903               1     34.2567E-03     34.2938E-03     9.32100E-03     9.39468E-03
            5904               1     34.0044E-03     34.2164E-03     10.1863E-03     10.3765E-03
            5905               1     33.2083E-03     33.5397E-03     11.3968E-03     11.4322E-03
            5906               1     20.7436E-03     24.6148E-03    -4.45500E-03    -5.08882E-03
            5907               1     27.4940E-03     26.9266E-03    -1.95249E-03    -3.11465E-03
            5908               1     29.5566E-03     28.5992E-03    -385.817E-06    -964.618E-06
            5909               1     31.6160E-03     30.7129E-03     902.104E-06     691.406E-06
            5910               1     32.6346E-03     31.7514E-03     2.32937E-03     2.14555E-03
            5911               1     33.4234E-03     32.6682E-03     3.23807E-03     3.19853E-03
            5912               1     33.9751E-03     33.2291E-03     4.30083E-03     4.24382E-03
            5913               1     34.1853E-03     33.5067E-03     4.92608E-03     4.91808E-03
            5914               1     34.4822E-03     33.8073E-03     5.67555E-03     5.65635E-03
            5915               1     34.4703E-03     33.8296E-03     6.14870E-03     6.14805E-03
            5916               1     34.6314E-03     33.9930E-03     6.70899E-03     6.70785E-03
            5917               1     34.5640E-03     33.9502E-03     7.14753E-03     7.15844E-03
            5918               1     34.6559E-03     34.0413E-03     7.63924E-03     7.67004E-03
            5919               1     34.5912E-03     34.0000E-03     8.15552E-03     8.18956E-03
            5920               1     34.6178E-03     34.0355E-03     8.69139E-03     8.79101E-03
            5921               1     34.5168E-03     33.9556E-03     9.40721E-03     9.48449E-03
            5922               1     34.3763E-03     33.8871E-03     10.1144E-03     10.3274E-03
            5923               1     33.9600E-03     33.5290E-03     11.1325E-03     11.2981E-03
            5924               1     33.4923E-03     33.2900E-03     12.2366E-03     12.5450E-03
            5925               1     23.4476E-03     20.0172E-03    -5.54974E-03    -7.66975E-03
            5926               1     25.4161E-03     22.9545E-03    -4.26851E-03    -4.90647E-03
            5927               1     27.5943E-03     25.7608E-03    -2.04816E-03    -2.24212E-03
            5928               1     29.2151E-03     27.7411E-03    -259.341E-06    -407.863E-06
            5929               1     30.6474E-03     29.4160E-03     1.22032E-03     1.18893E-03
            5930               1     31.7405E-03     30.5972E-03     2.63876E-03     2.59891E-03
            5931               1     32.4992E-03     31.4323E-03     3.62185E-03     3.61827E-03
            5932               1     33.1522E-03     32.1149E-03     4.66163E-03     4.65013E-03
            5933               1     33.4885E-03     32.4761E-03     5.34536E-03     5.34530E-03
            5934               1     33.8432E-03     32.8508E-03     6.10994E-03     6.10721E-03
            5935               1     33.9692E-03     32.9830E-03     6.66598E-03     6.66772E-03
            5936               1     34.1452E-03     33.1735E-03     7.29392E-03     7.30057E-03
            5937               1     34.1903E-03     33.2056E-03     7.86922E-03     7.87626E-03
            5938               1     34.2627E-03     33.2797E-03     8.50137E-03     8.53007E-03
            5939               1     34.2859E-03     33.2543E-03     9.23499E-03     9.25320E-03
            5940               1     34.2683E-03     33.2195E-03     10.0070E-03     10.0821E-03
            5941               1     34.2508E-03     33.0954E-03     11.0346E-03     11.0777E-03
            5942               1     34.0499E-03     32.8779E-03     12.0408E-03     12.2021E-03
            5943               1     33.8274E-03     32.5069E-03     13.4946E-03     13.5958E-03
            5944               1     42.3613E-03     45.1028E-03     6.83491E-03     6.43082E-03
            5945               1     29.1090E-03     30.8415E-03     9.08757E-03     8.77470E-03
            5946               1     24.6769E-03     26.2883E-03     7.40266E-03     7.44158E-03
            5947               1     22.7511E-03     24.1725E-03     8.13259E-03     8.04991E-03
            5948               1     21.2517E-03     22.6492E-03     7.70921E-03     7.73642E-03
            5949               1     20.7165E-03     22.0401E-03     8.04274E-03     8.01758E-03
            5950               1     20.0860E-03     21.3954E-03     7.86010E-03     7.86879E-03
            5951               1     19.8531E-03     21.1294E-03     7.97693E-03     7.96608E-03
            5952               1     19.4921E-03     20.7505E-03     7.83307E-03     7.83013E-03
            5953               1     19.3160E-03     20.5605E-03     7.83847E-03     7.83123E-03
            5954               1     19.0622E-03     20.2747E-03     7.71192E-03     7.69991E-03
            5955               1     18.9166E-03     20.1297E-03     7.67924E-03     7.67374E-03
            5956               1     18.7823E-03     19.9311E-03     7.59785E-03     7.57381E-03
            5957               1     18.7207E-03     19.8994E-03     7.57348E-03     7.57325E-03
            5958               1     18.8321E-03     19.8849E-03     7.58304E-03     7.53950E-03
            5959               1     18.9456E-03     20.1257E-03     7.57189E-03     7.59806E-03
            5960               1     19.5788E-03     20.5294E-03     7.72992E-03     7.65788E-03
            5961               1     19.9542E-03     21.3461E-03     7.61765E-03     7.74893E-03
            5962               1     21.7951E-03     22.8515E-03     8.00260E-03     7.91699E-03
            5963               1     34.0050E-03     33.5957E-03     734.394E-06     936.964E-06
            5964               1     31.6641E-03     32.4844E-03     7.62504E-03     7.44755E-03
            5965               1     24.8714E-03     25.9600E-03     8.14327E-03     7.96496E-03
            5966               1     23.3848E-03     24.5152E-03     8.00324E-03     8.03862E-03
            5967               1     21.8280E-03     22.9075E-03     8.31082E-03     8.24419E-03
            5968               1     21.1193E-03     22.2204E-03     8.10726E-03     8.13379E-03
            5969               1     20.5823E-03     21.6330E-03     8.21839E-03     8.18867E-03
            5970               1     20.1850E-03     21.2384E-03     8.04237E-03     8.04318E-03
            5971               1     19.8873E-03     20.9175E-03     8.03425E-03     8.01383E-03
            5972               1     19.5960E-03     20.6075E-03     7.87471E-03     7.85423E-03
            5973               1     19.3553E-03     20.3708E-03     7.81255E-03     7.79537E-03
            5974               1     19.1383E-03     20.0985E-03     7.68599E-03     7.64232E-03
            5975               1     18.9357E-03     19.9401E-03     7.61197E-03     7.59883E-03
            5976               1     18.8703E-03     19.7540E-03     7.54931E-03     7.47326E-03
            5977               1     18.7588E-03     19.7800E-03     7.48328E-03     7.48955E-03
            5978               1     19.0581E-03     19.8459E-03     7.52589E-03     7.41345E-03
            5979               1     19.1570E-03     20.3154E-03     7.45316E-03     7.54237E-03
            5980               1     20.3184E-03     21.0829E-03     7.63009E-03     7.53617E-03
            5981               1     21.0394E-03     22.5601E-03     7.56188E-03     7.88048E-03
            5982               1     26.8795E-03     28.0268E-03     53.3937E-06     362.638E-06
            5983               1     26.2189E-03     26.7177E-03     3.62907E-03     3.90479E-03
            5984               1     25.7057E-03     26.3896E-03     7.29886E-03     7.31857E-03
            5985               1     22.6725E-03     23.5632E-03     7.79854E-03     7.76441E-03
            5986               1     22.3806E-03     23.2424E-03     8.18676E-03     8.23057E-03
            5987               1     21.3371E-03     22.1896E-03     8.31866E-03     8.28508E-03
            5988               1     21.0449E-03     21.8946E-03     8.25502E-03     8.26819E-03
            5989               1     20.5416E-03     21.3649E-03     8.22740E-03     8.19886E-03
            5990               1     20.2606E-03     21.0767E-03     8.07098E-03     8.05543E-03
            5991               1     19.9090E-03     20.7227E-03     7.97821E-03     7.95293E-03
            5992               1     19.6499E-03     20.4292E-03     7.81986E-03     7.77823E-03
            5993               1     19.3510E-03     20.1671E-03     7.71053E-03     7.68872E-03
            5994               1     19.1684E-03     19.8968E-03     7.59072E-03     7.51710E-03
            5995               1     18.9358E-03     19.7699E-03     7.49789E-03     7.48292E-03
            5996               1     18.9810E-03     19.6348E-03     7.45557E-03     7.34448E-03
            5997               1     18.9483E-03     19.8418E-03     7.43118E-03     7.44306E-03
            5998               1     19.5835E-03     20.1584E-03     7.52133E-03     7.40643E-03
            5999               1     20.2357E-03     21.2030E-03     7.75663E-03     7.83002E-03
            6000               1     22.2929E-03     22.9016E-03     8.03476E-03     8.12954E-03
            6001               1     23.4681E-03     23.7034E-03    -901.462E-06    -643.810E-06
            6002               1     22.6997E-03     23.5169E-03     2.98686E-03     3.22575E-03
            6003               1     22.2697E-03     23.0003E-03     5.13880E-03     5.36176E-03
            6004               1     22.8587E-03     23.4757E-03     7.35180E-03     7.42480E-03
            6005               1     21.6102E-03     22.3357E-03     7.77908E-03     7.80242E-03
            6006               1     21.7862E-03     22.4275E-03     8.22796E-03     8.25470E-03
            6007               1     21.1021E-03     21.7445E-03     8.24585E-03     8.22508E-03
            6008               1     20.9685E-03     21.5883E-03     8.22284E-03     8.21622E-03
            6009               1     20.5037E-03     21.1174E-03     8.11719E-03     8.08874E-03
            6010               1     20.2677E-03     20.8625E-03     7.97776E-03     7.94637E-03
            6011               1     19.8924E-03     20.5106E-03     7.84577E-03     7.82024E-03
            6012               1     19.6599E-03     20.2261E-03     7.70271E-03     7.64548E-03
            6013               1     19.3516E-03     19.9904E-03     7.58882E-03     7.56606E-03
            6014               1     19.2308E-03     19.7558E-03     7.49276E-03     7.40531E-03
            6015               1     19.0875E-03     19.7541E-03     7.46995E-03     7.44278E-03
            6016               1     19.3223E-03     19.7836E-03     7.49166E-03     7.38488E-03
            6017               1     19.7397E-03     20.3791E-03     7.77772E-03     7.71995E-03
            6018               1     20.8615E-03     21.2595E-03     8.08024E-03     8.03685E-03
            6019               1     23.2671E-03     23.3701E-03     9.43854E-03     9.18736E-03
            6020               1     19.3127E-03     19.9691E-03    -1.33374E-03    -955.459E-06
            6021               1     19.6360E-03     20.1749E-03     1.78319E-03     2.06098E-03
            6022               1     20.4734E-03     21.0995E-03     4.74295E-03     4.93598E-03
            6023               1     20.6969E-03     21.3575E-03     6.10923E-03     6.26708E-03
            6024               1     21.6789E-03     22.1435E-03     7.54340E-03     7.59277E-03
            6025               1     21.1938E-03     21.6986E-03     7.80684E-03     7.82342E-03
            6026               1     21.4437E-03     21.8681E-03     8.14630E-03     8.14668E-03
            6027               1     20.9605E-03     21.3836E-03     8.09155E-03     8.06719E-03
            6028               1     20.8524E-03     21.2557E-03     8.06780E-03     8.04643E-03
            6029               1     20.4351E-03     20.8503E-03     7.94114E-03     7.91505E-03
            6030               1     20.2273E-03     20.6159E-03     7.82931E-03     7.78955E-03
            6031               1     19.8773E-03     20.3145E-03     7.70846E-03     7.68787E-03
            6032               1     19.6915E-03     20.0654E-03     7.60392E-03     7.54381E-03
            6033               1     19.4621E-03     19.9286E-03     7.55601E-03     7.53078E-03
            6034               1     19.4413E-03     19.7926E-03     7.52998E-03     7.45044E-03
            6035               1     19.5871E-03     20.0334E-03     7.73975E-03     7.66621E-03
            6036               1     20.0762E-03     20.3743E-03     7.96615E-03     7.88133E-03
            6037               1     21.3917E-03     21.5539E-03     8.91107E-03     8.67983E-03
            6038               1     23.0225E-03     23.2593E-03     9.91680E-03     9.82187E-03
            6039               1     16.2281E-03     16.6254E-03    -1.67388E-03    -1.45565E-03
            6040               1     16.6413E-03     17.2160E-03     1.52517E-03     1.82538E-03
            6041               1     18.0369E-03     18.6550E-03     3.76645E-03     3.99031E-03
            6042               1     19.7933E-03     20.1874E-03     5.91601E-03     6.00497E-03
            6043               1     20.3431E-03     20.7562E-03     6.71310E-03     6.79185E-03
            6044               1     21.2214E-03     21.4653E-03     7.61840E-03     7.61784E-03
            6045               1     21.0097E-03     21.2531E-03     7.73360E-03     7.72104E-03
            6046               1     21.1684E-03     21.3740E-03     7.95074E-03     7.93372E-03
            6047               1     20.8052E-03     21.0147E-03     7.88379E-03     7.85824E-03
            6048               1     20.7036E-03     20.9006E-03     7.87476E-03     7.84826E-03
            6049               1     20.3609E-03     20.5876E-03     7.78003E-03     7.76236E-03
            6050               1     20.2010E-03     20.3985E-03     7.72088E-03     7.68421E-03
            6051               1     19.9391E-03     20.2005E-03     7.66651E-03     7.65433E-03
            6052               1     19.8210E-03     20.0284E-03     7.63752E-03     7.59217E-03
            6053               1     19.7751E-03     20.0526E-03     7.74902E-03     7.71130E-03
            6054               1     19.8513E-03     20.0754E-03     7.87331E-03     7.82131E-03
            6055               1     20.4603E-03     20.6116E-03     8.49121E-03     8.32859E-03
            6056               1     21.2023E-03     21.3850E-03     9.13999E-03     9.04809E-03
            6057               1     23.2361E-03     23.0363E-03     10.7196E-03     10.3837E-03
            6058               1     12.9694E-03     13.2342E-03    -1.98374E-03    -1.56086E-03
            6059               1     13.8363E-03     14.4778E-03     1.08143E-03     1.26811E-03
            6060               1     16.2768E-03     16.6152E-03     3.73938E-03     3.86205E-03
            6061               1     18.1440E-03     18.5057E-03     5.13073E-03     5.23589E-03
            6062               1     19.8280E-03     19.9243E-03     6.54040E-03     6.51925E-03
            6063               1     20.3541E-03     20.4106E-03     6.94974E-03     6.94047E-03
            6064               1     20.9089E-03     20.9131E-03     7.48793E-03     7.46533E-03
            6065               1     20.7929E-03     20.7892E-03     7.55837E-03     7.53100E-03
            6066               1     20.8825E-03     20.8759E-03     7.72483E-03     7.70491E-03
            6067               1     20.6291E-03     20.6380E-03     7.70524E-03     7.68780E-03
            6068               1     20.5711E-03     20.5716E-03     7.74870E-03     7.72691E-03
            6069               1     20.3404E-03     20.3849E-03     7.73011E-03     7.72698E-03
            6070               1     20.2549E-03     20.2762E-03     7.75698E-03     7.73501E-03
            6071               1     20.1344E-03     20.2203E-03     7.82039E-03     7.82118E-03
            6072               1     20.0801E-03     20.1517E-03     7.91782E-03     7.90100E-03
            6073               1     20.2636E-03     20.3506E-03     8.25721E-03     8.21186E-03
            6074               1     20.3733E-03     20.5257E-03     8.62357E-03     8.59845E-03
            6075               1     21.3804E-03     21.3080E-03     9.68070E-03     9.46577E-03
            6076               1     22.5192E-03     22.5261E-03     10.8445E-03     10.6992E-03
            6077               1     9.42627E-03     10.1875E-03    -2.06621E-03    -2.06170E-03
            6078               1     11.3752E-03     11.5392E-03     1.19360E-03     1.36087E-03
            6079               1     14.3242E-03     14.7626E-03     3.23525E-03     3.32703E-03
            6080               1     17.1572E-03     17.0848E-03     5.10323E-03     4.99638E-03
            6081               1     18.7561E-03     18.5793E-03     5.80714E-03     5.75571E-03
            6082               1     19.7969E-03     19.5856E-03     6.61791E-03     6.57165E-03
            6083               1     20.1845E-03     19.9440E-03     6.89792E-03     6.85764E-03
            6084               1     20.5434E-03     20.3200E-03     7.28045E-03     7.25983E-03
            6085               1     20.5067E-03     20.2880E-03     7.39459E-03     7.37340E-03
            6086               1     20.6151E-03     20.4057E-03     7.58938E-03     7.57539E-03
            6087               1     20.4901E-03     20.3084E-03     7.65605E-03     7.65348E-03
            6088               1     20.5169E-03     20.3302E-03     7.78770E-03     7.77804E-03
            6089               1     20.4263E-03     20.2910E-03     7.87657E-03     7.89230E-03
            6090               1     20.4262E-03     20.2879E-03     8.02388E-03     8.02664E-03
            6091               1     20.4580E-03     20.3751E-03     8.23446E-03     8.25849E-03
            6092               1     20.4277E-03     20.4024E-03     8.50087E-03     8.52593E-03
            6093               1     20.7652E-03     20.7159E-03     9.05841E-03     9.04211E-03
            6094               1     20.7975E-03     20.9496E-03     9.65934E-03     9.68925E-03
            6095               1     22.2784E-03     22.0548E-03     11.2066E-03     10.9489E-03
            6096               1     6.79040E-03     6.13201E-03    -2.19166E-03    -1.77617E-03
            6097               1     8.43447E-03     9.31425E-03     967.702E-06     992.761E-06
            6098               1     13.1049E-03     12.7363E-03     3.51748E-03     3.19621E-03
            6099               1     16.0792E-03     15.5459E-03     4.42578E-03     4.24520E-03
            6100               1     17.6908E-03     17.2040E-03     5.38467E-03     5.29119E-03
            6101               1     18.7906E-03     18.2609E-03     5.90975E-03     5.83199E-03
            6102               1     19.4941E-03     19.0311E-03     6.49277E-03     6.46581E-03
            6103               1     19.8311E-03     19.3680E-03     6.79798E-03     6.76834E-03
            6104               1     20.1733E-03     19.7429E-03     7.17389E-03     7.16338E-03
            6105               1     20.2454E-03     19.8324E-03     7.37177E-03     7.36529E-03
            6106               1     20.4373E-03     20.0348E-03     7.64199E-03     7.63678E-03
            6107               1     20.4531E-03     20.0863E-03     7.81162E-03     7.82522E-03
            6108               1     20.5857E-03     20.2199E-03     8.05736E-03     8.06233E-03
            6109               1     20.6331E-03     20.3236E-03     8.26755E-03     8.30685E-03
            6110               1     20.7202E-03     20.4308E-03     8.56735E-03     8.59653E-03
            6111               1     20.8458E-03     20.6273E-03     8.90968E-03     8.98382E-03
            6112               1     20.8178E-03     20.7059E-03     9.36370E-03     9.43611E-03
            6113               1     21.1564E-03     21.0931E-03     10.0415E-03     10.1323E-03
            6114               1     21.0216E-03     21.2362E-03     10.7973E-03     10.9265E-03
            6115               1     3.95346E-03     5.00840E-03    -2.27351E-03    -2.59622E-03
            6116               1     7.21591E-03     6.01124E-03     1.83200E-03     1.03718E-03
            6117               1     12.1557E-03     10.9827E-03     2.84120E-03     2.43480E-03
            6118               1     14.4541E-03     13.5326E-03     3.80845E-03     3.65611E-03
            6119               1     16.4121E-03     15.5162E-03     4.61330E-03     4.48491E-03
            6120               1     17.5916E-03     16.8443E-03     5.37069E-03     5.33639E-03
            6121               1     18.4532E-03     17.7236E-03     5.91585E-03     5.87731E-03
            6122               1     19.1286E-03     18.4636E-03     6.48639E-03     6.47800E-03
            6123               1     19.5082E-03     18.8594E-03     6.85389E-03     6.84392E-03
            6124               1     19.9222E-03     19.3025E-03     7.28103E-03     7.27800E-03
            6125               1     20.1127E-03     19.5155E-03     7.56305E-03     7.56826E-03
            6126               1     20.4022E-03     19.8184E-03     7.92299E-03     7.92496E-03
            6127               1     20.5468E-03     19.9983E-03     8.19837E-03     8.22236E-03
            6128               1     20.7857E-03     20.2480E-03     8.57388E-03     8.59002E-03
            6129               1     20.9409E-03     20.4609E-03     8.90889E-03     8.96767E-03
            6130               1     21.1371E-03     20.6882E-03     9.38558E-03     9.43397E-03
            6131               1     21.2799E-03     20.9460E-03     9.82712E-03     9.96025E-03
            6132               1     21.3384E-03     21.1141E-03     10.4806E-03     10.6012E-03
            6133               1     21.5032E-03     21.5213E-03     11.1142E-03     11.3682E-03
            6134               1     2.49733E-03     7.35999E-03    -768.954E-06    -2.17424E-03
            6135               1     6.41482E-03     4.03490E-03     816.046E-06     326.608E-06
            6136               1     9.79978E-03     8.14686E-03     1.72097E-03     1.60154E-03
            6137               1     12.7421E-03     11.3957E-03     2.95364E-03     2.83865E-03
            6138               1     14.6884E-03     13.6141E-03     3.93638E-03     3.91437E-03
            6139               1     16.2265E-03     15.2179E-03     4.78033E-03     4.75079E-03
            6140               1     17.4135E-03     16.5060E-03     5.57194E-03     5.56761E-03
            6141               1     18.2238E-03     17.3385E-03     6.13721E-03     6.12987E-03
            6142               1     18.9526E-03     18.1162E-03     6.73243E-03     6.73133E-03
            6143               1     19.3900E-03     18.5687E-03     7.13631E-03     7.13617E-03
            6144               1     19.8607E-03     19.0713E-03     7.60697E-03     7.60690E-03
            6145               1     20.1391E-03     19.3648E-03     7.95561E-03     7.96152E-03
            6146               1     20.4949E-03     19.7465E-03     8.39758E-03     8.40051E-03
            6147               1     20.7352E-03     20.0051E-03     8.77921E-03     8.79652E-03
            6148               1     21.0775E-03     20.3707E-03     9.29513E-03     9.30504E-03
            6149               1     21.3204E-03     20.6517E-03     9.76899E-03     9.81515E-03
            6150               1     21.7266E-03     21.0726E-03     10.4635E-03     10.4861E-03
            6151               1     21.8893E-03     21.3745E-03     11.0087E-03     11.1343E-03
            6152               1     22.4748E-03     21.9705E-03     11.9940E-03     12.0470E-03
            6153               1     16.0266E-03     18.3325E-03     4.34931E-03     3.98049E-03
            6154               1     13.8264E-03     14.4914E-03     7.68987E-03     7.58102E-03
            6155               1     13.3160E-03     14.0951E-03     7.53321E-03     7.63659E-03
            6156               1     14.8912E-03     15.3031E-03     8.52863E-03     8.48304E-03
            6157               1     14.2839E-03     14.8397E-03     8.14476E-03     8.15173E-03
            6158               1     14.5983E-03     15.1067E-03     8.33793E-03     8.33150E-03
            6159               1     14.3296E-03     14.8695E-03     8.17112E-03     8.17016E-03
            6160               1     14.4269E-03     14.9476E-03     8.23289E-03     8.22818E-03
            6161               1     14.3324E-03     14.8619E-03     8.17476E-03     8.17246E-03
            6162               1     14.3609E-03     14.8822E-03     8.19390E-03     8.19065E-03
            6163               1     14.3340E-03     14.8534E-03     8.17719E-03     8.17344E-03
            6164               1     14.3266E-03     14.8454E-03     8.17472E-03     8.17296E-03
            6165               1     14.3358E-03     14.8448E-03     8.17928E-03     8.17372E-03
            6166               1     14.2859E-03     14.8026E-03     8.15279E-03     8.15334E-03
            6167               1     14.3395E-03     14.8367E-03     8.18217E-03     8.17392E-03
            6168               1     14.1923E-03     14.7091E-03     8.10235E-03     8.10717E-03
            6169               1     14.3666E-03     14.8277E-03     8.19936E-03     8.17754E-03
            6170               1     13.9999E-03     14.5804E-03     8.00306E-03     8.05139E-03
            6171               1     14.9509E-03     15.2034E-03     8.52383E-03     8.39677E-03
            6172               1     8.31687E-03     7.86305E-03     1.48092E-03     2.01104E-03
            6173               1     13.9913E-03     14.4581E-03     7.61602E-03     7.67916E-03
            6174               1     15.3473E-03     15.3611E-03     8.76506E-03     8.67379E-03
            6175               1     14.7955E-03     15.0094E-03     8.32451E-03     8.34440E-03
            6176               1     14.7159E-03     14.8787E-03     8.34674E-03     8.33426E-03
            6177               1     14.5305E-03     14.7166E-03     8.19386E-03     8.18713E-03
            6178               1     14.5438E-03     14.7167E-03     8.22748E-03     8.21909E-03
            6179               1     14.4983E-03     14.6799E-03     8.18711E-03     8.18092E-03
            6180               1     14.5063E-03     14.6806E-03     8.20219E-03     8.19439E-03
            6181               1     14.4926E-03     14.6677E-03     8.18959E-03     8.18180E-03
            6182               1     14.4874E-03     14.6636E-03     8.19167E-03     8.18586E-03
            6183               1     14.4906E-03     14.6590E-03     8.19135E-03     8.18128E-03
            6184               1     14.4697E-03     14.6483E-03     8.18369E-03     8.18053E-03
            6185               1     14.4930E-03     14.6542E-03     8.19370E-03     8.18075E-03
            6186               1     14.4394E-03     14.6200E-03     8.17045E-03     8.16989E-03
            6187               1     14.4936E-03     14.6486E-03     8.19173E-03     8.17672E-03
            6188               1     14.3201E-03     14.5145E-03     8.11312E-03     8.11906E-03
            6189               1     14.4186E-03     14.4982E-03     8.13684E-03     8.08945E-03
            6190               1     13.8669E-03     14.1936E-03     7.88019E-03     7.95602E-03
            6191               1     2.88209E-03     3.27390E-03     1.40222E-03     1.83242E-03
            6192               1     12.4712E-03     12.4857E-03     7.00869E-03     7.06719E-03
            6193               1     15.5970E-03     15.2038E-03     8.56726E-03     8.47808E-03
            6194               1     14.5876E-03     14.4889E-03     8.17376E-03     8.19265E-03
            6195               1     14.8582E-03     14.6695E-03     8.25562E-03     8.24894E-03
            6196               1     14.5684E-03     14.3955E-03     8.14584E-03     8.13471E-03
            6197               1     14.6991E-03     14.5289E-03     8.19632E-03     8.19129E-03
            6198               1     14.6243E-03     14.4550E-03     8.17239E-03     8.16406E-03
            6199               1     14.6765E-03     14.5070E-03     8.19434E-03     8.18714E-03
            6200               1     14.6490E-03     14.4835E-03     8.18687E-03     8.18010E-03
            6201               1     14.6670E-03     14.4979E-03     8.19463E-03     8.18594E-03
            6202               1     14.6553E-03     14.4948E-03     8.19345E-03     8.18839E-03
            6203               1     14.6625E-03     14.4920E-03     8.19528E-03     8.18461E-03
            6204               1     14.6589E-03     14.5053E-03     8.20057E-03     8.19790E-03
            6205               1     14.6621E-03     14.4872E-03     8.19540E-03     8.18152E-03
            6206               1     14.6641E-03     14.5209E-03     8.21201E-03     8.21243E-03
            6207               1     14.6300E-03     14.4530E-03     8.16480E-03     8.15542E-03
            6208               1     14.6183E-03     14.4459E-03     8.20123E-03     8.16911E-03
            6209               1     14.4118E-03     14.3421E-03     7.98088E-03     8.06334E-03
            6210               1     8.90082E-03     10.8996E-03     3.19273E-03     2.74852E-03
            6211               1     11.8041E-03     11.3524E-03     6.63232E-03     6.51273E-03
            6212               1     12.6547E-03     12.3169E-03     6.90706E-03     7.00950E-03
            6213               1     14.9266E-03     14.3040E-03     8.16934E-03     8.12939E-03
            6214               1     14.4232E-03     13.9182E-03     7.92553E-03     7.93111E-03
            6215               1     14.9303E-03     14.4075E-03     8.21092E-03     8.20636E-03
            6216               1     14.7142E-03     14.2055E-03     8.10021E-03     8.09790E-03
            6217               1     14.8829E-03     14.3723E-03     8.19459E-03     8.19058E-03
            6218               1     14.8089E-03     14.3060E-03     8.15786E-03     8.15532E-03
            6219               1     14.8651E-03     14.3627E-03     8.19043E-03     8.18687E-03
            6220               1     14.8439E-03     14.3471E-03     8.18252E-03     8.17966E-03
            6221               1     14.8535E-03     14.3585E-03     8.18903E-03     8.18573E-03
            6222               1     14.8635E-03     14.3736E-03     8.19978E-03     8.19654E-03
            6223               1     14.8413E-03     14.3539E-03     8.18663E-03     8.18394E-03
            6224               1     14.8985E-03     14.4164E-03     8.22805E-03     8.22382E-03
            6225               1     14.8223E-03     14.3430E-03     8.17745E-03     8.17715E-03
            6226               1     15.0203E-03     14.5336E-03     8.30959E-03     8.29406E-03
            6227               1     14.8505E-03     14.4370E-03     8.18195E-03     8.22792E-03
            6228               1     15.7903E-03     15.1933E-03     8.80573E-03     8.68894E-03
            6509               1     1.43259E-03     1.67045E-03    -147.210E-06    -114.078E-06
            6510               1     912.440E-06     1.04735E-03    -299.046E-06    -263.679E-06
            6511               1     1.25179E-03     1.14685E-03    -7.36958E-06    -33.7175E-06
            6512               1     1.01520E-03     1.04498E-03    -293.138E-06    -282.263E-06
            6513               1     865.551E-06     938.674E-06     67.2096E-06     52.8121E-06
            6514               1     812.097E-06     842.881E-06    -163.254E-06    -208.387E-06
            6515               1     632.680E-06     615.038E-06     109.486E-06     88.9136E-06
            6516               1     624.575E-06     652.214E-06    -148.075E-06    -161.758E-06
            6517               1     370.590E-06     334.984E-06     116.626E-06     95.2713E-06
            6518               1     435.798E-06     486.435E-06    -121.211E-06    -165.009E-06
            6519               1     178.435E-06     155.774E-06     94.5184E-06     62.0908E-06
            6520               1     421.049E-06     398.324E-06    -201.968E-06    -191.817E-06
            6521               1     294.960E-06     503.646E-06     3.92666E-06     17.6286E-06
            6522               1     417.259E-06     303.421E-06    -178.282E-06    -152.636E-06
            6523               1     52.6090E-03     55.6802E-03     175.919E-06     1.01355E-03
            6524               1     63.5955E-03     69.0784E-03     683.593E-06     2.14250E-03
            6525               1     57.1409E-03     58.9947E-03     1.79521E-03     2.32411E-03
            6526               1     64.7944E-03     62.5799E-03     5.55789E-03     5.68068E-03
            6527               1     57.6357E-03     58.4006E-03     6.18317E-03     5.84518E-03
            6528               1     60.3167E-03     63.6377E-03     9.12256E-03     9.49949E-03
            6529               1     55.8002E-03     57.8601E-03     8.47891E-03     8.65869E-03
            6530               1     60.0755E-03     59.9985E-03     12.3336E-03     12.3490E-03
            6531               1     55.3372E-03     56.0159E-03     11.1290E-03     10.6467E-03
            6532               1     56.7899E-03     58.2376E-03     14.3205E-03     14.2876E-03
            6533               1     53.1446E-03     54.4831E-03     12.7406E-03     12.5086E-03
            6534               1     55.7627E-03     55.8502E-03     16.3298E-03     15.8724E-03
            6535               1     52.0163E-03     52.4958E-03     14.4627E-03     13.7961E-03
            6536               1     53.4200E-03     53.8455E-03     18.0887E-03     17.6162E-03
            6537               1     49.5344E-03     50.4712E-03     15.7555E-03     15.3731E-03
            6538               1     52.1241E-03     51.6348E-03     19.9424E-03     18.9152E-03
            6539               1     47.2268E-03     47.4183E-03     15.8138E-03     16.0583E-03
            6540               1     49.4952E-03     49.1292E-03     21.7062E-03     20.7557E-03
            6541               1     48.1480E-03     46.1764E-03     17.4147E-03     17.6847E-03
            6542               1     45.3067E-03     43.3527E-03     20.8240E-03     20.7593E-03
            6543               1     34.8569E-03     37.6741E-03     3.78410E-03     4.42767E-03
            6544               1     44.1877E-03     48.9047E-03     4.53026E-03     5.63219E-03
            6545               1     38.2845E-03     39.8234E-03     4.81287E-03     5.25451E-03
            6546               1     45.6102E-03     43.9272E-03     8.36841E-03     8.35445E-03
            6547               1     39.2916E-03     39.5776E-03     8.10921E-03     7.82467E-03
            6548               1     42.3792E-03     44.5814E-03     10.8071E-03     10.9560E-03
            6549               1     37.9742E-03     39.2687E-03     9.68208E-03     9.73177E-03
            6550               1     42.4256E-03     42.2388E-03     13.0038E-03     12.9583E-03
            6551               1     37.8852E-03     38.0367E-03     11.4646E-03     11.0813E-03
            6552               1     40.1151E-03     40.9394E-03     14.2844E-03     14.2007E-03
            6553               1     36.3336E-03     37.0015E-03     12.4934E-03     12.2583E-03
            6554               1     39.5518E-03     39.3115E-03     15.5547E-03     15.2052E-03
            6555               1     35.5788E-03     35.5244E-03     13.4547E-03     12.9817E-03
            6556               1     37.9950E-03     38.1103E-03     16.6497E-03     16.2964E-03
            6557               1     33.8576E-03     34.2061E-03     14.1519E-03     13.8281E-03
            6558               1     37.2695E-03     36.4004E-03     17.6361E-03     16.9037E-03
            6559               1     31.6872E-03     31.8422E-03     13.6017E-03     13.8788E-03
            6560               1     35.6593E-03     35.2117E-03     18.5373E-03     17.8390E-03
            6561               1     32.9717E-03     31.7883E-03     14.6113E-03     14.9227E-03
            6562               1     32.1020E-03     31.3412E-03     17.1612E-03     17.3394E-03
            6563               1     22.5468E-03     24.9602E-03     7.21585E-03     7.70497E-03
            6564               1     30.2841E-03     34.1505E-03     8.09967E-03     8.90035E-03
            6565               1     24.8236E-03     26.0431E-03     7.68277E-03     8.08632E-03
            6566               1     32.3443E-03     31.0811E-03     11.0425E-03     10.8908E-03
            6567               1     26.5800E-03     26.4207E-03     10.0687E-03     9.84421E-03
            6568               1     30.5490E-03     31.5682E-03     12.4872E-03     12.4434E-03
            6569               1     25.9827E-03     26.4953E-03     10.9388E-03     10.9410E-03
            6570               1     30.7707E-03     30.5541E-03     13.7641E-03     13.6916E-03
            6571               1     26.2779E-03     26.0547E-03     12.0373E-03     11.7695E-03
            6572               1     29.6398E-03     29.8355E-03     14.3833E-03     14.2881E-03
            6573               1     25.5073E-03     25.5257E-03     12.4244E-03     12.2725E-03
            6574               1     29.3076E-03     29.1405E-03     15.0012E-03     14.8463E-03
            6575               1     25.2723E-03     24.9511E-03     12.9778E-03     12.6520E-03
            6576               1     28.6897E-03     28.4362E-03     15.3718E-03     15.1709E-03
            6577               1     24.3634E-03     24.1221E-03     12.9961E-03     12.7907E-03
            6578               1     28.3053E-03     27.9757E-03     15.7452E-03     15.4653E-03
            6579               1     23.6716E-03     23.3215E-03     13.1007E-03     12.7913E-03
            6580               1     27.8897E-03     27.1622E-03     15.8619E-03     15.4395E-03
            6581               1     21.2818E-03     21.7449E-03     11.9274E-03     12.2729E-03
            6582               1     27.5368E-03     26.7790E-03     15.8758E-03     15.3846E-03
            6583               1     22.1202E-03     22.1969E-03     12.3072E-03     12.6388E-03
            6584               1     24.4988E-03     25.6153E-03     14.0457E-03     14.4431E-03
            6585               1     14.9199E-03     15.7049E-03     8.45395E-03     8.56875E-03
            6586               1     18.8047E-03     20.7022E-03     9.88917E-03     10.3006E-03
            6587               1     15.0911E-03     15.2669E-03     8.47404E-03     8.42561E-03
            6588               1     20.9295E-03     19.8254E-03     11.5968E-03     11.0884E-03
            6589               1     15.3867E-03     15.1281E-03     8.70580E-03     8.62459E-03
            6590               1     20.5437E-03     19.7435E-03     11.8486E-03     11.3512E-03
            6591               1     15.8536E-03     15.7458E-03     8.94202E-03     9.05215E-03
            6592               1     18.4523E-03     19.3930E-03     10.6083E-03     10.9452E-03
            6593               1     1.23894E-03     1.20209E-03     711.803E-06     686.239E-06
            6594               1     1.28653E-03     1.25004E-03     735.897E-06     718.112E-06
            6595               1     1.24371E-03     1.25393E-03     716.218E-06     720.600E-06
            6596               1     1.26168E-03     1.24251E-03     726.900E-06     715.819E-06
            6597               1     1.25786E-03     1.25093E-03     725.441E-06     721.615E-06
            6598               1     1.26830E-03     1.24319E-03     732.233E-06     717.531E-06
            6599               1     1.24858E-03     1.22942E-03     720.807E-06     709.421E-06
            6600               1     1.18636E-03     1.20872E-03     652.081E-06     627.435E-06
            6601               1     1.26840E-03     1.19241E-03     675.828E-06     663.103E-06
            6602               1     1.17967E-03     1.22014E-03     657.891E-06     667.965E-06
            6603               1     1.16271E-03     1.13355E-03     657.480E-06     640.172E-06
            6604               1     1.15911E-03     1.14714E-03     663.121E-06     658.353E-06
            6605               1     1.15206E-03     1.13299E-03     664.916E-06     651.409E-06
            6606               1     1.13468E-03     1.11702E-03     654.740E-06     643.428E-06
            6607               1     1.10270E-03     1.23295E-03     542.909E-06     507.299E-06
            6608               1     1.28880E-03     1.07283E-03     569.354E-06     535.191E-06
            6609               1     1.02414E-03     1.08245E-03     526.528E-06     531.082E-06
            6610               1     998.324E-06     1.00798E-03     534.145E-06     543.385E-06
            6611               1     936.796E-06     940.544E-06     519.243E-06     528.113E-06
            6612               1     932.091E-06     921.940E-06     537.876E-06     525.500E-06
            6613               1     915.632E-06     904.806E-06     527.995E-06     515.814E-06
            6614               1     997.554E-06     1.33600E-03     335.234E-06     284.437E-06
            6615               1     1.24807E-03     866.272E-06     353.386E-06     327.526E-06
            6616               1     858.938E-06     1.00835E-03     351.943E-06     364.092E-06
            6617               1     758.699E-06     727.892E-06     349.511E-06     332.374E-06
            6618               1     700.883E-06     685.715E-06     362.898E-06     373.746E-06
            6619               1     577.150E-06     640.301E-06     329.888E-06     349.913E-06
            6620               1     575.773E-06     606.416E-06     331.617E-06     333.194E-06
            6621               1     989.906E-06     1.50250E-03     38.2761E-06     44.2519E-06
            6622               1     1.45516E-03     970.316E-06     81.2825E-06     88.1214E-06
            6623               1     706.863E-06     1.00990E-03     61.2882E-06     48.7698E-06
            6624               1     575.676E-06     532.314E-06     115.324E-06     73.2964E-06
            6625               1     341.934E-06     260.481E-06     87.8200E-06     82.0156E-06
            6626               1     306.122E-06     266.551E-06     155.407E-06     147.058E-06
            6627               1     255.267E-06     360.992E-06     146.615E-06     146.760E-06
            6628               1     1.65212E-03     1.99802E-03    -374.087E-06    -312.834E-06
            6629               1     1.66124E-03     1.28984E-03    -372.776E-06    -344.903E-06
            6630               1     936.693E-06     1.16844E-03    -244.374E-06    -302.170E-06
            6631               1     782.620E-06     711.563E-06    -285.434E-06    -255.591E-06
            6632               1     475.249E-06     494.066E-06    -218.115E-06    -260.827E-06
            6633               1     425.994E-06     410.666E-06    -207.327E-06    -225.525E-06
            6634               1     480.162E-06     687.142E-06    -134.667E-06    -140.514E-06
            1732               1     12.4162E-03     12.4037E-03    -6.47134E-03    -6.84789E-03
            1733               1     15.0294E-03     15.3551E-03    -8.65376E-03    -8.81696E-03
            1734               1     16.2372E-03     16.1694E-03    -9.34927E-03    -9.25830E-03
            1735               1     17.1249E-03     17.2083E-03    -9.86534E-03    -9.85317E-03
            1736               1     17.3828E-03     17.2199E-03    -10.0313E-03    -9.88428E-03
            1737               1     16.6518E-03     16.6554E-03    -9.60490E-03    -9.53912E-03
            1738               1     16.2996E-03     16.0544E-03    -9.39674E-03    -9.10352E-03
            1739               1     14.3861E-03     15.0916E-03    -7.59727E-03    -7.03368E-03
            1740               1     10.5523E-03     10.7008E-03    -6.09117E-03    -6.17031E-03
            1741               1     15.8099E-03     15.9628E-03    -9.07050E-03    -9.15330E-03
            1742               1     17.2450E-03     17.3468E-03    -9.84598E-03    -9.84190E-03
            1743               1     18.0876E-03     17.7734E-03    -10.4055E-03    -10.1786E-03
            1744               1     18.0837E-03     17.9466E-03    -10.4276E-03    -10.3128E-03
            1745               1     17.7007E-03     17.2210E-03    -10.2108E-03    -9.91700E-03
            1746               1     16.8440E-03     16.2738E-03    -9.68666E-03    -9.29880E-03
            1747               1     11.5463E-03     11.8805E-03    -6.28568E-03    -6.67699E-03
            1748               1     10.5624E-03     10.6066E-03    -5.82134E-03    -5.77896E-03
            1749               1     15.4294E-03     15.1409E-03    -8.70581E-03    -8.53386E-03
            1750               1     18.2704E-03     18.0629E-03    -10.4060E-03    -10.2531E-03
            1751               1     18.9039E-03     18.7971E-03    -10.8390E-03    -10.7439E-03
            1752               1     18.9402E-03     18.6073E-03    -10.9272E-03    -10.7232E-03
            1753               1     18.3090E-03     18.0946E-03    -10.5667E-03    -10.4354E-03
            1754               1     15.0852E-03     15.4602E-03    -8.70636E-03    -8.92435E-03
            1755               1     10.2568E-03     10.8631E-03    -5.89601E-03    -6.27019E-03
            1756               1     12.2189E-03     11.8272E-03    -5.83761E-03    -5.69411E-03
            1757               1     15.9103E-03     15.7091E-03    -8.66607E-03    -8.47897E-03
            1758               1     18.4576E-03     18.1795E-03    -10.3975E-03    -10.2217E-03
            1759               1     19.5633E-03     19.3514E-03    -11.2086E-03    -11.0727E-03
            1760               1     19.4500E-03     19.3906E-03    -11.2160E-03    -11.1785E-03
            1761               1     17.8557E-03     18.0931E-03    -10.3042E-03    -10.4362E-03
            1762               1     15.0863E-03     15.4441E-03    -8.61584E-03    -8.84012E-03
            1763               1     10.8578E-03     11.3343E-03    -5.95045E-03    -6.17763E-03
            1764               1     14.1602E-03     13.9891E-03    -5.98308E-03    -5.74019E-03
            1765               1     16.8774E-03     16.5086E-03    -8.70092E-03    -8.51840E-03
            1766               1     18.7030E-03     18.4533E-03    -10.3875E-03    -10.2092E-03
            1767               1     19.7586E-03     19.7411E-03    -11.2712E-03    -11.2648E-03
            1768               1     19.4126E-03     19.5594E-03    -11.2025E-03    -11.2907E-03
            1769               1     17.8851E-03     18.1432E-03    -10.2778E-03    -10.4257E-03
            1770               1     15.3808E-03     15.8765E-03    -8.58883E-03    -8.82305E-03
            1771               1     12.3109E-03     12.3599E-03    -6.00635E-03    -6.16057E-03
            1772               1     16.7778E-03     16.0904E-03    -5.92415E-03    -5.69524E-03
            1773               1     18.0414E-03     17.7320E-03    -8.83599E-03    -8.51321E-03
            1774               1     19.4141E-03     19.5062E-03    -10.5901E-03    -10.6677E-03
            1775               1     19.0177E-03     19.2834E-03    -10.8430E-03    -11.0368E-03
            1776               1     18.8666E-03     18.9915E-03    -10.8814E-03    -10.9620E-03
            1777               1     18.3753E-03     18.6409E-03    -10.5056E-03    -10.6080E-03
            1778               1     16.2254E-03     16.3874E-03    -8.63899E-03    -8.76554E-03
            1779               1     13.7356E-03     14.3541E-03    -5.87213E-03    -6.06287E-03
            1780               1     20.2336E-03     20.5288E-03    -6.69813E-03    -6.36018E-03
            1781               1     20.4431E-03     20.5860E-03    -9.68307E-03    -9.92698E-03
            1782               1     18.4426E-03     18.7023E-03    -10.0093E-03    -10.3509E-03
            1783               1     18.1694E-03     18.1832E-03    -10.2718E-03    -10.3714E-03
            1784               1     17.6251E-03     17.9914E-03    -10.1730E-03    -10.3827E-03
            1785               1     17.4464E-03     17.6220E-03    -9.99395E-03    -10.0228E-03
            1786               1     18.3776E-03     18.4276E-03    -9.67753E-03    -9.46193E-03
            1787               1     17.5510E-03     17.0785E-03    -6.43006E-03    -6.46227E-03
            1788               1     26.2047E-03     24.0184E-03    -8.58144E-03    -8.82395E-03
            1789               1     19.8767E-03     19.2463E-03    -9.43671E-03    -9.84460E-03
            1790               1     17.3802E-03     16.8500E-03    -9.14200E-03    -9.19356E-03
            1791               1     16.5074E-03     16.5219E-03    -9.30668E-03    -9.45993E-03
            1792               1     16.0898E-03     16.1015E-03    -9.27943E-03    -9.29216E-03
            1793               1     15.7309E-03     16.0724E-03    -8.94065E-03    -9.01123E-03
            1794               1     17.2172E-03     17.5437E-03    -9.21785E-03    -9.12877E-03
            1795               1     21.2081E-03     21.9784E-03    -8.38283E-03    -7.74989E-03
            1796               1     13.7135E-03     13.9818E-03    -3.00008E-03    -3.46633E-03
            1797               1     16.4907E-03     16.0552E-03    -6.15342E-03    -6.04846E-03
            1798               1     16.5162E-03     16.1973E-03    -7.74175E-03    -7.50646E-03
            1799               1     15.9891E-03     15.8972E-03    -8.54438E-03    -8.33502E-03
            1800               1     15.6195E-03     15.2797E-03    -8.93563E-03    -8.58722E-03
            1801               1     14.8488E-03     14.3457E-03    -8.51980E-03    -8.27132E-03
            1802               1     14.7136E-03     13.0273E-03    -7.98755E-03    -7.41643E-03
            1803               1     10.9059E-03     8.84361E-03    -5.58360E-03    -5.04662E-03
            1804               1     18.5736E-03     18.9058E-03    -4.29332E-03    -4.82401E-03
            1805               1     18.5692E-03     18.9362E-03    -6.66791E-03    -6.58823E-03
            1806               1     17.4802E-03     17.2515E-03    -7.78956E-03    -7.40026E-03
            1807               1     16.3742E-03     15.6867E-03    -8.58724E-03    -7.97137E-03
            1808               1     15.3826E-03     14.5789E-03    -8.75816E-03    -8.20524E-03
            1809               1     15.0860E-03     13.7409E-03    -8.63309E-03    -7.89013E-03
            1810               1     14.7001E-03     13.5446E-03    -8.03714E-03    -7.37394E-03
            1811               1     10.8061E-03     12.6773E-03    -5.06773E-03    -5.81834E-03
            1812               1     21.1327E-03     21.3219E-03    -4.57244E-03    -4.78003E-03
            1813               1     20.0263E-03     20.2843E-03    -6.91138E-03    -6.94164E-03
            1814               1     18.7528E-03     18.5700E-03    -8.23294E-03    -7.81653E-03
            1815               1     16.9854E-03     16.3630E-03    -8.78133E-03    -8.27353E-03
            1816               1     15.7717E-03     14.7543E-03    -8.96264E-03    -8.33076E-03
            1817               1     15.2377E-03     14.3721E-03    -8.73918E-03    -8.21880E-03
            1818               1     13.6011E-03     14.2910E-03    -7.24952E-03    -7.48438E-03
            1819               1     13.2942E-03     13.3350E-03    -4.94083E-03    -5.50684E-03
            1820               1     23.9923E-03     23.6566E-03    -4.59753E-03    -4.66542E-03
            1821               1     21.4290E-03     21.4592E-03    -6.94628E-03    -6.82622E-03
            1822               1     19.5058E-03     19.3182E-03    -8.37880E-03    -8.12829E-03
            1823               1     17.6532E-03     17.1388E-03    -9.04818E-03    -8.63881E-03
            1824               1     16.1526E-03     15.5019E-03    -9.16879E-03    -8.79799E-03
            1825               1     14.7367E-03     14.7251E-03    -8.43391E-03    -8.39561E-03
            1826               1     14.3283E-03     14.5089E-03    -7.15470E-03    -7.29877E-03
            1827               1     14.9350E-03     15.3799E-03    -5.05283E-03    -5.31767E-03
            1828               1     26.2846E-03     26.0487E-03    -4.78107E-03    -4.67305E-03
            1829               1     23.0374E-03     22.7623E-03    -6.92855E-03    -6.78411E-03
            1830               1     20.3325E-03     20.1541E-03    -8.44670E-03    -8.21499E-03
            1831               1     18.0658E-03     17.7957E-03    -9.20614E-03    -9.02845E-03
            1832               1     16.0997E-03     15.9374E-03    -9.13964E-03    -9.06254E-03
            1833               1     15.0278E-03     15.1175E-03    -8.49859E-03    -8.54512E-03
            1834               1     14.8792E-03     15.3373E-03    -7.03564E-03    -7.22938E-03
            1835               1     17.0114E-03     16.8693E-03    -5.09992E-03    -5.28810E-03
            1836               1     28.9444E-03     28.2613E-03    -4.70482E-03    -4.51976E-03
            1837               1     24.6342E-03     24.4828E-03    -7.05255E-03    -6.82160E-03
            1838               1     21.2267E-03     21.0853E-03    -8.52972E-03    -8.43311E-03
            1839               1     18.2278E-03     18.2093E-03    -9.18851E-03    -9.17732E-03
            1840               1     16.1845E-03     16.3570E-03    -9.22393E-03    -9.33640E-03
            1841               1     15.1375E-03     15.5597E-03    -8.45386E-03    -8.65683E-03
            1842               1     16.1307E-03     16.2836E-03    -7.11769E-03    -7.26154E-03
            1843               1     18.8452E-03     18.9119E-03    -5.02609E-03    -5.11146E-03
            1844               1     31.2156E-03     30.9417E-03    -5.07686E-03    -4.71928E-03
            1845               1     26.3475E-03     25.9754E-03    -7.13546E-03    -6.94352E-03
            1846               1     21.8259E-03     21.8765E-03    -8.48547E-03    -8.39315E-03
            1847               1     18.6374E-03     19.0691E-03    -9.28680E-03    -9.56928E-03
            1848               1     16.0596E-03     16.5947E-03    -9.19251E-03    -9.53276E-03
            1849               1     15.3695E-03     15.7899E-03    -8.41127E-03    -8.62791E-03
            1850               1     17.1050E-03     17.5094E-03    -7.10220E-03    -7.23875E-03
            1851               1     21.0717E-03     20.7620E-03    -5.23224E-03    -5.13431E-03
            1852               1     33.8407E-03     32.8818E-03    -4.97370E-03    -4.54909E-03
            1853               1     27.8753E-03     28.0084E-03    -7.36487E-03    -6.90267E-03
            1854               1     23.0870E-03     23.6757E-03    -8.85741E-03    -9.24571E-03
            1855               1     17.8299E-03     18.4752E-03    -8.88552E-03    -9.46126E-03
            1856               1     15.5541E-03     16.2524E-03    -8.87271E-03    -9.32050E-03
            1857               1     16.0345E-03     16.8427E-03    -8.61842E-03    -8.94845E-03
            1858               1     18.4088E-03     18.5265E-03    -7.10222E-03    -7.04853E-03
            1859               1     22.6988E-03     23.0107E-03    -4.92814E-03    -4.85209E-03
            1860               1     37.0673E-03     37.6668E-03    -6.23529E-03    -5.45034E-03
            1861               1     30.5440E-03     30.8367E-03    -8.66902E-03    -9.11525E-03
            1862               1     21.8860E-03     21.9755E-03    -8.37295E-03    -9.12629E-03
            1863               1     17.1445E-03     17.4021E-03    -8.21829E-03    -8.71721E-03
            1864               1     14.0289E-03     14.9215E-03    -8.03811E-03    -8.60251E-03
            1865               1     14.7595E-03     15.5828E-03    -8.00270E-03    -8.35120E-03
            1866               1     20.3925E-03     21.0345E-03    -8.08260E-03    -8.00077E-03
            1867               1     26.3356E-03     25.8586E-03    -5.56709E-03    -5.15263E-03
            1868               1     42.8528E-03     38.7791E-03    -9.75250E-03    -9.83189E-03
            1869               1     28.9420E-03     26.5494E-03    -8.69311E-03    -9.37920E-03
            1870               1     20.7605E-03     19.1539E-03    -7.15706E-03    -7.38532E-03
            1871               1     14.8326E-03     14.3876E-03    -6.86084E-03    -7.20126E-03
            1872               1     11.6546E-03     11.8498E-03    -6.62487E-03    -6.81354E-03
            1873               1     12.5548E-03     13.0709E-03    -6.51562E-03    -6.71853E-03
            1874               1     18.3182E-03     18.4901E-03    -7.46268E-03    -7.56178E-03
            1875               1     29.0494E-03     29.1339E-03    -8.08340E-03    -7.37214E-03
            1876               1     32.4051E-03     30.6842E-03     731.439E-06     166.583E-06
            1877               1     26.7717E-03     24.8307E-03    -3.56955E-03    -3.17169E-03
            1878               1     21.9556E-03     20.9367E-03    -6.16540E-03    -5.78035E-03
            1879               1     17.1831E-03     16.8367E-03    -7.29178E-03    -6.89068E-03
            1880               1     14.3585E-03     14.0068E-03    -7.95831E-03    -7.42139E-03
            1881               1     13.4487E-03     12.2996E-03    -7.48712E-03    -7.08135E-03
            1882               1     15.8686E-03     12.0865E-03    -6.65278E-03    -5.82185E-03
            1883               1     17.3739E-03     11.6280E-03    -3.51373E-03    -3.00518E-03
            1884               1     36.3393E-03     36.8408E-03    -2.47555E-03    -3.40061E-03
            1885               1     30.2162E-03     30.8215E-03    -4.20154E-03    -3.93239E-03
            1886               1     23.2117E-03     22.8039E-03    -5.74605E-03    -4.95049E-03
            1887               1     17.4945E-03     16.7686E-03    -6.81193E-03    -5.81498E-03
            1888               1     13.1276E-03     11.8502E-03    -7.09706E-03    -6.14506E-03
            1889               1     12.8691E-03     10.7214E-03    -7.11115E-03    -5.95932E-03
            1890               1     15.4882E-03     14.3641E-03    -6.33052E-03    -5.44132E-03
            1891               1     18.0521E-03     20.5315E-03    -3.85024E-03    -4.95181E-03
            1892               1     38.4369E-03     38.2673E-03    -3.31885E-03    -3.68521E-03
            1893               1     31.8112E-03     32.4098E-03    -5.18380E-03    -5.37176E-03
            1894               1     24.9255E-03     25.1243E-03    -6.05939E-03    -5.36487E-03
            1895               1     18.1033E-03     17.3012E-03    -6.75742E-03    -5.84371E-03
            1896               1     13.2655E-03     11.7304E-03    -7.05524E-03    -6.02078E-03
            1897               1     12.3427E-03     11.1073E-03    -6.84477E-03    -5.99021E-03
            1898               1     14.9208E-03     16.0843E-03    -5.80778E-03    -6.09702E-03
            1899               1     21.2625E-03     20.7597E-03    -3.87225E-03    -4.62826E-03
            1900               1     40.8225E-03     40.4251E-03    -3.36407E-03    -3.59305E-03
            1901               1     33.1125E-03     33.0723E-03    -5.22198E-03    -5.12318E-03
            1902               1     25.9516E-03     25.9173E-03    -6.48249E-03    -6.14221E-03
            1903               1     18.8112E-03     18.2938E-03    -6.90894E-03    -6.22601E-03
            1904               1     13.4481E-03     12.2011E-03    -7.08098E-03    -6.38504E-03
            1905               1     12.0296E-03     11.8643E-03    -6.64843E-03    -6.46215E-03
            1906               1     15.8039E-03     15.9404E-03    -5.55013E-03    -5.65313E-03
            1907               1     22.5184E-03     22.9146E-03    -4.04157E-03    -4.38632E-03
            1908               1     43.0135E-03     42.2490E-03    -3.61409E-03    -3.55234E-03
            1909               1     34.6978E-03     34.4330E-03    -5.37764E-03    -5.26376E-03
            1910               1     26.6152E-03     26.4097E-03    -6.45250E-03    -6.15713E-03
            1911               1     19.4365E-03     18.9487E-03    -7.12731E-03    -6.76602E-03
            1912               1     13.4971E-03     13.0208E-03    -7.09645E-03    -6.86070E-03
            1913               1     12.0687E-03     11.9853E-03    -6.56695E-03    -6.46191E-03
            1914               1     16.6404E-03     17.0039E-03    -5.60857E-03    -5.74696E-03
            1915               1     24.4877E-03     24.0597E-03    -4.03444E-03    -4.28641E-03
            1916               1     44.7815E-03     44.2152E-03    -3.67877E-03    -3.56231E-03
            1917               1     36.0022E-03     35.5301E-03    -5.36071E-03    -5.17738E-03
            1918               1     27.6644E-03     27.4141E-03    -6.60390E-03    -6.40572E-03
            1919               1     19.6287E-03     19.4873E-03    -7.13487E-03    -7.06562E-03
            1920               1     13.5383E-03     13.3865E-03    -7.16632E-03    -7.13017E-03
            1921               1     12.4525E-03     12.6909E-03    -6.63641E-03    -6.75227E-03
            1922               1     17.6770E-03     17.7969E-03    -5.54727E-03    -5.68165E-03
            1923               1     25.8487E-03     25.6708E-03    -4.20140E-03    -4.20188E-03
            1924               1     47.0163E-03     45.9876E-03    -3.64127E-03    -3.40178E-03
            1925               1     37.4748E-03     37.2175E-03    -5.51143E-03    -5.24893E-03
            1926               1     28.3951E-03     28.3176E-03    -6.66361E-03    -6.65158E-03
            1927               1     19.9420E-03     19.9727E-03    -7.20328E-03    -7.29835E-03
            1928               1     13.5142E-03     13.8723E-03    -7.20862E-03    -7.48016E-03
            1929               1     12.8025E-03     13.3064E-03    -6.66197E-03    -6.90581E-03
            1930               1     18.8547E-03     18.9635E-03    -5.66407E-03    -5.73444E-03
            1931               1     27.5882E-03     27.2981E-03    -4.04271E-03    -4.06951E-03
            1932               1     48.6695E-03     48.2302E-03    -4.12198E-03    -3.63583E-03
            1933               1     38.8629E-03     38.4784E-03    -5.64611E-03    -5.42998E-03
            1934               1     29.0433E-03     29.2672E-03    -6.66198E-03    -6.63209E-03
            1935               1     20.4117E-03     21.0924E-03    -7.33971E-03    -7.89134E-03
            1936               1     13.3557E-03     14.1194E-03    -7.24397E-03    -7.81631E-03
            1937               1     13.0366E-03     13.6681E-03    -6.56763E-03    -6.87792E-03
            1938               1     19.8774E-03     20.2484E-03    -5.63080E-03    -5.72842E-03
            1939               1     29.2476E-03     28.9175E-03    -4.27971E-03    -3.99128E-03
            1940               1     50.7470E-03     49.5402E-03    -4.04984E-03    -3.41915E-03
            1941               1     40.0812E-03     40.5743E-03    -5.93656E-03    -5.32096E-03
            1942               1     30.2578E-03     31.1335E-03    -7.20121E-03    -7.86391E-03
            1943               1     19.5172E-03     20.1712E-03    -7.00509E-03    -7.92959E-03
            1944               1     12.9019E-03     14.0103E-03    -6.89558E-03    -7.70238E-03
            1945               1     13.8069E-03     15.1619E-03    -6.75016E-03    -7.33025E-03
            1946               1     20.9712E-03     21.3517E-03    -5.50033E-03    -5.33977E-03
            1947               1     30.5616E-03     30.6859E-03    -3.92353E-03    -3.61896E-03
            1948               1     53.3375E-03     54.2315E-03    -5.76267E-03    -4.53939E-03
            1949               1     42.4382E-03     42.8457E-03    -7.70373E-03    -8.32172E-03
            1950               1     28.6119E-03     28.2933E-03    -6.81713E-03    -7.94148E-03
            1951               1     19.0079E-03     19.1374E-03    -6.26153E-03    -7.12979E-03
            1952               1     11.1048E-03     12.3139E-03    -5.98279E-03    -6.89372E-03
            1953               1     12.1841E-03     13.5285E-03    -5.97507E-03    -6.65807E-03
            1954               1     22.5971E-03     23.6696E-03    -6.39763E-03    -6.48219E-03
            1955               1     33.3984E-03     33.2482E-03    -4.55345E-03    -3.74726E-03
            1956               1     58.5208E-03     52.8320E-03    -10.7966E-03    -10.7317E-03
            1957               1     39.5851E-03     35.5893E-03    -8.00093E-03    -8.93978E-03
            1958               1     27.3339E-03     24.6386E-03    -5.35262E-03    -5.73692E-03
            1959               1     16.4999E-03     15.2430E-03    -4.60968E-03    -5.12541E-03
            1960               1     8.26778E-03     8.44439E-03    -4.11304E-03    -4.47335E-03
            1961               1     9.89499E-03     10.2822E-03    -4.18300E-03    -4.52136E-03
            1962               1     19.9161E-03     19.3883E-03    -5.54768E-03    -5.84008E-03
            1963               1     35.0678E-03     34.2165E-03    -7.42904E-03    -6.66629E-03
            1964               1     50.9491E-03     47.7525E-03     4.27247E-03     3.60211E-03
            1965               1     38.5272E-03     35.4536E-03    -999.619E-06    -355.012E-06
            1966               1     29.3045E-03     27.6374E-03    -4.55998E-03    -4.04855E-03
            1967               1     20.1093E-03     19.5313E-03    -5.97412E-03    -5.42134E-03
            1968               1     13.6033E-03     13.4742E-03    -6.91288E-03    -6.22887E-03
            1969               1     12.0663E-03     10.3813E-03    -6.46478E-03    -5.93853E-03
            1970               1     17.8422E-03     12.5883E-03    -5.37862E-03    -4.35089E-03
            1971               1     25.3737E-03     18.3591E-03    -1.75442E-03    -1.26347E-03
            1972               1     53.5797E-03     54.1983E-03    -695.210E-06    -1.94758E-03
            1973               1     43.1642E-03     43.9927E-03    -1.81012E-03    -1.38500E-03
            1974               1     30.9538E-03     30.5409E-03    -3.69975E-03    -2.57566E-03
            1975               1     20.9451E-03     20.4699E-03    -5.04258E-03    -3.73854E-03
            1976               1     11.8627E-03     10.5747E-03    -5.45968E-03    -4.20113E-03
            1977               1     10.6227E-03     7.95835E-03    -5.58143E-03    -4.12096E-03
            1978               1     17.5748E-03     16.8516E-03    -4.74306E-03    -3.67761E-03
            1979               1     25.4676E-03     28.1901E-03    -2.67465E-03    -4.04722E-03
            1980               1     54.8824E-03     54.4329E-03    -2.11508E-03    -2.60244E-03
            1981               1     44.3261E-03     45.1171E-03    -3.45166E-03    -3.77775E-03
            1982               1     33.2818E-03     33.8993E-03    -3.95936E-03    -3.03428E-03
            1983               1     21.6267E-03     21.0512E-03    -4.76538E-03    -3.54300E-03
            1984               1     12.0782E-03     10.5755E-03    -5.15853E-03    -3.81470E-03
            1985               1     9.67267E-03     8.41715E-03    -5.03411E-03    -3.93087E-03
            1986               1     16.9103E-03     18.4251E-03    -4.32377E-03    -4.66835E-03
            1987               1     28.3828E-03     27.5928E-03    -2.82756E-03    -3.71945E-03
            1988               1     56.8044E-03     56.2288E-03    -2.12272E-03    -2.45150E-03
            1989               1     45.3610E-03     45.2628E-03    -3.60088E-03    -3.50072E-03
            1990               1     34.1236E-03     34.2576E-03    -4.59763E-03    -4.20419E-03
            1991               1     22.6135E-03     22.3783E-03    -4.83477E-03    -3.93791E-03
            1992               1     12.2306E-03     10.7411E-03    -5.06949E-03    -4.15172E-03
            1993               1     9.22612E-03     9.02983E-03    -4.82449E-03    -4.54148E-03
            1994               1     17.7653E-03     17.9164E-03    -4.00942E-03    -4.08486E-03
            1995               1     29.0275E-03     29.4088E-03    -2.92185E-03    -3.34724E-03
            1996               1     58.5907E-03     57.5210E-03    -2.53732E-03    -2.47847E-03
            1997               1     46.6485E-03     46.3160E-03    -3.80341E-03    -3.69701E-03
            1998               1     34.6720E-03     34.5015E-03    -4.57213E-03    -4.21209E-03
            1999               1     23.2036E-03     22.7478E-03    -5.11277E-03    -4.66316E-03
            2000               1     12.4355E-03     11.7836E-03    -5.07344E-03    -4.73744E-03
            2001               1     9.17407E-03     9.05012E-03    -4.71375E-03    -4.52870E-03
            2002               1     18.2976E-03     18.7012E-03    -4.05265E-03    -4.17968E-03
            2003               1     30.6461E-03     30.0433E-03    -2.96210E-03    -3.22807E-03
            2004               1     59.7726E-03     59.0169E-03    -2.57998E-03    -2.44883E-03
            2005               1     47.6075E-03     47.0010E-03    -3.83512E-03    -3.62728E-03
            2006               1     35.5792E-03     35.3134E-03    -4.74961E-03    -4.53119E-03
            2007               1     23.3666E-03     23.1798E-03    -5.13325E-03    -5.04241E-03
            2008               1     12.4878E-03     12.1790E-03    -5.16469E-03    -5.10697E-03
            2009               1     9.53295E-03     9.75165E-03    -4.78212E-03    -4.87774E-03
            2010               1     19.1731E-03     19.2571E-03    -4.02168E-03    -4.13154E-03
            2011               1     31.4097E-03     31.1916E-03    -3.10261E-03    -3.08840E-03
            2012               1     61.5906E-03     60.2768E-03    -2.57443E-03    -2.28652E-03
            2013               1     48.7310E-03     48.4271E-03    -3.98484E-03    -3.67741E-03
            2014               1     36.0753E-03     35.9682E-03    -4.85782E-03    -4.86372E-03
            2015               1     23.6440E-03     23.6043E-03    -5.20941E-03    -5.35351E-03
            2016               1     12.4313E-03     12.6584E-03    -5.22322E-03    -5.55570E-03
            2017               1     9.86668E-03     10.4663E-03    -4.82901E-03    -5.10612E-03
            2018               1     20.0471E-03     20.1931E-03    -4.11916E-03    -4.16346E-03
            2019               1     32.8043E-03     32.3850E-03    -2.97143E-03    -2.93872E-03
            2020               1     62.6135E-03     62.0514E-03    -3.15655E-03    -2.54220E-03
            2021               1     49.7257E-03     49.2978E-03    -4.18359E-03    -3.92089E-03
            2022               1     36.5546E-03     36.8676E-03    -4.85332E-03    -4.85171E-03
            2023               1     24.0369E-03     24.6581E-03    -5.42020E-03    -6.13768E-03
            2024               1     12.0632E-03     12.6464E-03    -5.26178E-03    -6.00788E-03
            2025               1     10.0699E-03     10.8436E-03    -4.69805E-03    -5.08019E-03
            2026               1     20.8776E-03     21.3123E-03    -4.08789E-03    -4.16515E-03
            2027               1     33.8831E-03     33.5976E-03    -3.19264E-03    -2.79517E-03
            2028               1     64.1121E-03     62.7122E-03    -3.12633E-03    -2.31279E-03
            2029               1     50.5410E-03     51.2962E-03    -4.52153E-03    -3.76713E-03
            2030               1     37.5303E-03     38.4858E-03    -5.55276E-03    -6.39924E-03
            2031               1     22.9896E-03     23.3464E-03    -5.12201E-03    -6.30708E-03
            2032               1     11.7594E-03     12.7464E-03    -4.91717E-03    -5.98525E-03
            2033               1     10.8052E-03     12.5544E-03    -4.81234E-03    -5.59432E-03
            2034               1     21.6649E-03     22.3382E-03    -3.83717E-03    -3.62060E-03
            2035               1     34.8034E-03     34.8424E-03    -2.84094E-03    -2.33865E-03
            2036               1     66.0577E-03     67.1842E-03    -5.20520E-03    -3.62464E-03
            2037               1     52.4876E-03     52.9396E-03    -6.66915E-03    -7.39915E-03
            2038               1     35.4298E-03     34.6874E-03    -5.27733E-03    -6.67465E-03
            2039               1     22.5609E-03     22.2982E-03    -4.36629E-03    -5.50547E-03
            2040               1     9.80774E-03     10.7056E-03    -3.95557E-03    -5.13689E-03
            2041               1     9.05359E-03     10.6926E-03    -3.91870E-03    -4.85476E-03
            2042               1     22.9053E-03     24.2218E-03    -4.55909E-03    -4.77594E-03
            2043               1     36.7711E-03     36.9780E-03    -3.39123E-03    -2.28406E-03
            2044               1     70.5423E-03     63.6488E-03    -11.4295E-03    -11.2452E-03
            2045               1     48.5817E-03     43.3588E-03    -7.24200E-03    -8.36511E-03
            2046               1     33.9343E-03     30.4064E-03    -3.69256E-03    -4.19083E-03
            2047               1     20.1345E-03     18.1500E-03    -2.55317E-03    -3.20280E-03
            2048               1     7.67034E-03     7.37172E-03    -1.78429E-03    -2.27392E-03
            2049               1     7.09997E-03     7.13744E-03    -1.93986E-03    -2.38629E-03
            2050               1     20.1005E-03     18.8524E-03    -3.49298E-03    -3.91969E-03
            2051               1     37.3871E-03     35.8298E-03    -6.28019E-03    -5.48602E-03
            2052               1     65.4372E-03     61.4484E-03     7.26365E-03     6.43392E-03
            2053               1     48.2136E-03     44.5473E-03     1.36071E-03     2.17093E-03
            2054               1     35.9369E-03     33.9609E-03    -3.00873E-03    -2.40855E-03
            2055               1     23.5758E-03     22.9367E-03    -4.66892E-03    -4.05695E-03
            2056               1     13.6403E-03     13.9171E-03    -5.80102E-03    -5.08246E-03
            2057               1     10.4786E-03     8.74052E-03    -5.54922E-03    -5.00515E-03
            2058               1     18.6571E-03     13.1096E-03    -4.19147E-03    -3.12754E-03
            2059               1     30.4475E-03     23.3984E-03    -484.953E-06    -51.0477E-06
            2060               1     67.1351E-03     67.7242E-03     924.284E-06    -547.231E-06
            2061               1     53.7655E-03     54.9835E-03     316.386E-06     857.773E-06
            2062               1     37.8942E-03     37.7360E-03    -1.80304E-03    -501.127E-06
            2063               1     25.1914E-03     25.1408E-03    -3.34802E-03    -1.94324E-03
            2064               1     12.1248E-03     11.4147E-03    -3.97524E-03    -2.69147E-03
            2065               1     7.99399E-03     5.44871E-03    -4.06876E-03    -2.59251E-03
            2066               1     18.8173E-03     18.6237E-03    -3.40827E-03    -2.34047E-03
            2067               1     30.2115E-03     33.0243E-03    -1.58317E-03    -3.07689E-03
            2068               1     67.2592E-03     66.9513E-03    -1.14592E-03    -1.63797E-03
            2069               1     54.4358E-03     55.5298E-03    -1.83433E-03    -2.19563E-03
            2070               1     40.8844E-03     42.2046E-03    -2.04916E-03    -1.02301E-03
            2071               1     25.8388E-03     25.8631E-03    -2.98867E-03    -1.81165E-03
            2072               1     12.7404E-03     11.9732E-03    -3.32541E-03    -2.06118E-03
            2073               1     7.15859E-03     6.41789E-03    -3.43624E-03    -2.41538E-03
            2074               1     17.8259E-03     19.7447E-03    -2.82261E-03    -3.27694E-03
            2075               1     32.6161E-03     31.9368E-03    -1.85404E-03    -2.74723E-03
            2076               1     69.0615E-03     68.1890E-03    -1.00786E-03    -1.16399E-03
            2077               1     55.1422E-03     55.7057E-03    -2.29475E-03    -2.00441E-03
            2078               1     41.3224E-03     42.1539E-03    -2.99401E-03    -2.77098E-03
            2079               1     27.0791E-03     27.5492E-03    -2.88971E-03    -2.21455E-03
            2080               1     12.9296E-03     11.9947E-03    -3.27726E-03    -2.71972E-03
            2081               1     6.18099E-03     6.67088E-03    -2.98220E-03    -2.97559E-03
            2082               1     18.6922E-03     19.2286E-03    -2.55374E-03    -2.64804E-03
            2083               1     33.0041E-03     33.5678E-03    -1.56851E-03    -1.96321E-03
            2084               1     69.8513E-03     69.3556E-03    -2.28234E-03    -1.62397E-03
            2085               1     56.0182E-03     56.1381E-03    -2.66535E-03    -2.40195E-03
            2086               1     41.5843E-03     42.4982E-03    -2.94227E-03    -2.67065E-03
            2087               1     27.5971E-03     28.0752E-03    -3.49802E-03    -3.83580E-03
            2088               1     12.7673E-03     12.3110E-03    -3.04922E-03    -3.46230E-03
            2089               1     6.06665E-03     6.68971E-03    -2.75101E-03    -2.89710E-03
            2090               1     18.7952E-03     19.9661E-03    -2.24404E-03    -2.42411E-03
            2091               1     34.1369E-03     33.8540E-03    -1.85780E-03    -1.72866E-03
            2092               1     70.6295E-03     69.4056E-03    -2.14916E-03    -1.18779E-03
            2093               1     56.3724E-03     57.5228E-03    -3.16476E-03    -2.25867E-03
            2094               1     42.4857E-03     43.5535E-03    -3.87576E-03    -4.63408E-03
            2095               1     26.3938E-03     26.3768E-03    -3.09988E-03    -4.17364E-03
            2096               1     12.7911E-03     12.7531E-03    -2.88978E-03    -3.82857E-03
            2097               1     6.34403E-03     8.23558E-03    -2.56493E-03    -3.36427E-03
            2098               1     19.4067E-03     20.4768E-03    -1.98002E-03    -1.82018E-03
            2099               1     34.2284E-03     34.6202E-03    -1.46369E-03    -937.398E-06
            2100               1     72.1788E-03     73.4352E-03    -4.53713E-03    -2.67597E-03
            2101               1     57.9040E-03     58.3959E-03    -5.44600E-03    -6.13766E-03
            2102               1     39.9242E-03     38.8840E-03    -3.68654E-03    -5.10605E-03
            2103               1     26.1092E-03     25.3112E-03    -2.50602E-03    -3.63840E-03
            2104               1     10.9622E-03     10.6156E-03    -1.80218E-03    -3.03558E-03
            2105               1     4.71477E-03     6.51921E-03    -1.77021E-03    -2.76160E-03
            2106               1     20.1408E-03     21.7577E-03    -2.33196E-03    -2.61986E-03
            2107               1     35.4821E-03     35.9250E-03    -1.95610E-03    -755.074E-06
            2108               1     75.7051E-03     68.3635E-03    -11.2642E-03    -10.9484E-03
            2109               1     53.3530E-03     47.4615E-03    -6.27482E-03    -7.43025E-03
            2110               1     38.3196E-03     34.2411E-03    -2.13821E-03    -2.65489E-03
            2111               1     23.7543E-03     21.1327E-03    -643.197E-06    -1.32497E-03
            2112               1     10.3059E-03     9.23171E-03     350.186E-06    -162.805E-06
            2113               1     3.92589E-03     3.58838E-03     348.004E-06    -156.791E-06
            2114               1     17.6964E-03     16.3077E-03    -1.24676E-03    -1.70249E-03
            2115               1     34.6839E-03     33.2595E-03    -4.44293E-03    -3.57519E-03
            2116               1     1.31866E-03     1.29692E-03     662.124E-06     671.121E-06
            2117               1     1.47950E-03     1.49277E-03     849.937E-06     860.413E-06
            2118               1     1.49012E-03     1.49996E-03     858.553E-06     865.142E-06
            2119               1     1.46744E-03     1.47904E-03     846.963E-06     853.777E-06
            2120               1     1.46744E-03     1.47904E-03     846.963E-06     853.777E-06
            2121               1     1.49012E-03     1.49996E-03     858.553E-06     865.142E-06
            2122               1     1.47950E-03     1.49277E-03     849.937E-06     860.413E-06
            2123               1     1.31866E-03     1.29692E-03     662.124E-06     671.121E-06
            2124               1     1.13934E-03     1.14240E-03     645.630E-06     646.128E-06
            2125               1     1.60224E-03     1.63503E-03     920.355E-06     938.865E-06
            2126               1     1.49321E-03     1.51492E-03     860.521E-06     873.167E-06
            2127               1     1.48496E-03     1.50907E-03     857.121E-06     871.054E-06
            2128               1     1.48496E-03     1.50907E-03     857.121E-06     871.054E-06
            2129               1     1.49321E-03     1.51492E-03     860.521E-06     873.167E-06
            2130               1     1.60224E-03     1.63503E-03     920.355E-06     938.865E-06
            2131               1     1.13934E-03     1.14240E-03     645.630E-06     646.128E-06
            2132               1     1.09082E-03     1.09577E-03     613.583E-06     623.502E-06
            2133               1     1.46649E-03     1.47566E-03     840.274E-06     842.676E-06
            2134               1     1.52551E-03     1.53988E-03     879.378E-06     886.638E-06
            2135               1     1.51167E-03     1.52469E-03     872.668E-06     880.056E-06
            2136               1     1.51167E-03     1.52469E-03     872.668E-06     880.056E-06
            2137               1     1.52551E-03     1.53988E-03     879.378E-06     886.638E-06
            2138               1     1.46649E-03     1.47566E-03     840.274E-06     842.676E-06
            2139               1     1.09082E-03     1.09577E-03     613.583E-06     623.502E-06
            3835               1     49.5570E-03     59.2083E-03     27.6135E-03     33.3487E-03
            3836               1     73.4504E-03     80.8874E-03     41.4693E-03     43.6060E-03
            3837               1     82.7379E-03     84.9273E-03     47.1547E-03     46.7537E-03
            3838               1     86.9334E-03     90.0881E-03     49.9716E-03     50.6721E-03
            3839               1     88.4408E-03     88.7670E-03     51.0606E-03     50.7652E-03
            3840               1     84.1971E-03     85.1294E-03     48.5132E-03     48.9568E-03
            3841               1     80.6073E-03     79.3160E-03     46.3007E-03     45.5921E-03
            3842               1     63.2849E-03     65.2535E-03     35.7305E-03     34.0456E-03
            3843               1     58.8232E-03     54.8475E-03     30.0057E-03     29.6467E-03
            3844               1     79.4161E-03     85.0093E-03     43.5125E-03     45.7878E-03
            3845               1     86.6877E-03     91.5221E-03     48.3432E-03     49.8331E-03
            3846               1     90.0900E-03     90.9153E-03     51.5350E-03     51.2971E-03
            3847               1     88.9291E-03     91.7254E-03     51.3027E-03     52.6042E-03
            3848               1     87.4220E-03     87.5998E-03     50.2623E-03     50.4733E-03
            3849               1     81.7440E-03     81.7963E-03     46.9936E-03     47.0116E-03
            3850               1     52.0736E-03     58.3460E-03     29.9904E-03     33.5969E-03
            3851               1     64.4442E-03     66.7419E-03     29.9654E-03     28.6312E-03
            3852               1     84.8734E-03     82.0283E-03     44.2520E-03     43.0134E-03
            3853               1     91.9334E-03     93.4948E-03     50.8013E-03     51.1681E-03
            3854               1     92.9155E-03     96.8993E-03     52.7439E-03     54.6422E-03
            3855               1     92.1054E-03     94.1944E-03     53.1319E-03     54.2987E-03
            3856               1     88.6467E-03     91.2495E-03     51.0664E-03     52.5773E-03
            3857               1     74.7648E-03     80.6893E-03     42.6963E-03     45.9045E-03
            3858               1     54.0237E-03     58.3310E-03     28.5753E-03     31.9524E-03
            3859               1     80.9095E-03     73.7825E-03     29.8236E-03     28.1315E-03
            3860               1     88.5274E-03     88.1100E-03     44.6005E-03     42.6362E-03
            3861               1     95.5379E-03     97.7272E-03     51.9295E-03     53.4153E-03
            3862               1     92.4556E-03     96.2183E-03     52.3995E-03     54.9188E-03
            3863               1     91.8167E-03     94.6109E-03     52.7913E-03     54.5146E-03
            3864               1     88.3497E-03     92.9420E-03     50.8871E-03     53.3385E-03
            3865               1     76.4668E-03     81.0888E-03     42.2138E-03     44.9797E-03
            3866               1     59.9150E-03     66.0894E-03     28.1823E-03     31.1011E-03
            3867               1     94.2746E-03     99.9038E-03     33.7813E-03     31.1973E-03
            3868               1     99.9090E-03     101.839E-03     47.3091E-03     50.7235E-03
            3869               1     91.3535E-03     93.8923E-03     49.1485E-03     52.3971E-03
            3870               1     90.5771E-03     90.9923E-03     50.7162E-03     51.8688E-03
            3871               1     86.2547E-03     90.4059E-03     49.5869E-03     52.1882E-03
            3872               1     84.4280E-03     87.7955E-03     48.6933E-03     50.3681E-03
            3873               1     85.3300E-03     89.2314E-03     46.6098E-03     47.6719E-03
            3874               1     77.2720E-03     77.9215E-03     30.5611E-03     32.3905E-03
            3875               1     131.510E-03     111.888E-03     40.6935E-03     45.6192E-03
            3876               1     99.8352E-03     94.1306E-03     46.4540E-03     50.0911E-03
            3877               1     88.7764E-03     83.6071E-03     45.9974E-03     46.3788E-03
            3878               1     83.6472E-03     83.4400E-03     46.4247E-03     47.8944E-03
            3879               1     80.8110E-03     80.8721E-03     46.2730E-03     46.6873E-03
            3880               1     76.5743E-03     79.7389E-03     44.0811E-03     45.2013E-03
            3881               1     80.7787E-03     83.9487E-03     44.6139E-03     45.0534E-03
            3882               1     96.2505E-03     100.333E-03     39.6973E-03     37.6037E-03
            3883               1     90.8484E-03     90.4450E-03     19.0336E-03     19.0068E-03
            3884               1     74.1060E-03     73.7139E-03     19.0336E-03     19.0068E-03
            3885               1     58.2989E-03     57.9308E-03     19.0336E-03     19.0068E-03
            3886               1     44.4368E-03     44.1250E-03     19.0336E-03     19.0068E-03
            3887               1     34.9185E-03     34.7399E-03     19.0336E-03     19.0068E-03
            3888               1     33.6566E-03     33.6973E-03     19.0336E-03     19.0068E-03
            3889               1     41.4129E-03     41.6287E-03     19.0336E-03     19.0068E-03
            3890               1     54.4619E-03     54.7649E-03     19.0336E-03     19.0068E-03
            3891               1     117.530E-03     95.2294E-03     45.3558E-03     45.9062E-03
            3892               1     105.555E-03     94.7686E-03     51.6118E-03     53.0496E-03
            3893               1     94.6441E-03     85.0707E-03     46.9410E-03     47.9081E-03
            3894               1     88.7339E-03     84.3798E-03     47.3399E-03     48.5453E-03
            3895               1     84.8278E-03     83.9391E-03     47.3591E-03     48.4465E-03
            3896               1     81.0122E-03     83.8604E-03     46.5982E-03     47.7564E-03
            3897               1     88.2143E-03     91.9021E-03     50.9228E-03     51.9927E-03
            3898               1     78.5491E-03     87.4577E-03     41.1674E-03     42.4317E-03
            3899               1     63.9790E-03     83.6546E-03     34.0116E-03     34.8255E-03
            3900               1     95.4564E-03     112.371E-03     51.9569E-03     53.2635E-03
            3901               1     88.4043E-03     99.7069E-03     50.1204E-03     51.1318E-03
            3902               1     89.1596E-03     97.1803E-03     51.2589E-03     52.4706E-03
            3903               1     89.0455E-03     93.1162E-03     51.3876E-03     52.4418E-03
            3904               1     87.7297E-03     89.5588E-03     50.2441E-03     51.4430E-03
            3905               1     95.6701E-03     94.2088E-03     53.0643E-03     54.1153E-03
            3906               1     66.9290E-03     66.9502E-03     37.2641E-03     38.4660E-03
            3907               1     100.968E-03     89.4362E-03     40.0807E-03     44.2209E-03
            3908               1     93.1566E-03     92.9338E-03     50.5355E-03     53.2703E-03
            3909               1     92.4606E-03     90.7113E-03     52.0434E-03     52.2580E-03
            3910               1     94.3018E-03     94.5950E-03     53.8128E-03     54.6143E-03
            3911               1     93.3452E-03     93.6303E-03     53.5447E-03     54.0452E-03
            3912               1     88.2074E-03     90.0222E-03     50.8850E-03     51.8030E-03
            3913               1     86.6509E-03     88.1603E-03     49.8830E-03     50.1401E-03
            3914               1     81.5629E-03     85.4730E-03     40.1181E-03     39.0718E-03
            3915               1     73.0470E-03     74.1300E-03     36.7526E-03     35.2032E-03
            3916               1     93.4357E-03     96.5331E-03     51.8202E-03     54.3903E-03
            3917               1     96.0797E-03     97.9691E-03     54.8545E-03     56.4821E-03
            3918               1     97.8904E-03     99.6740E-03     56.1332E-03     57.4877E-03
            3919               1     96.9187E-03     99.8356E-03     55.7974E-03     57.6321E-03
            3920               1     94.3266E-03     96.7072E-03     54.2997E-03     55.7818E-03
            3921               1     89.5508E-03     92.5427E-03     51.4587E-03     52.8734E-03
            3922               1     65.6558E-03     68.5943E-03     34.5028E-03     36.6867E-03
            3923               1     60.3100E-03     56.0574E-03     33.5374E-03     30.9982E-03
            3924               1     89.1101E-03     84.4873E-03     50.8268E-03     48.0699E-03
            3925               1     99.7123E-03     104.028E-03     57.2149E-03     59.6925E-03
            3926               1     98.2363E-03     102.045E-03     56.5460E-03     58.7536E-03
            3927               1     98.7789E-03     101.211E-03     56.9623E-03     58.3710E-03
            3928               1     99.8476E-03     102.802E-03     57.6387E-03     59.3476E-03
            3929               1     83.6474E-03     88.4756E-03     48.2874E-03     51.0711E-03
            3930               1     53.0101E-03     60.0584E-03     30.4956E-03     34.5764E-03
            3931               1     61.8360E-03     60.5126E-03     35.6582E-03     34.5801E-03
            3932               1     87.6513E-03     91.5262E-03     50.4155E-03     52.6805E-03
            3933               1     94.5280E-03     97.4082E-03     54.2998E-03     55.3990E-03
            3934               1     97.7995E-03     100.349E-03     56.4163E-03     57.5973E-03
            3935               1     97.4688E-03     100.684E-03     56.2641E-03     57.9566E-03
            3936               1     95.3663E-03     97.4552E-03     54.9732E-03     56.1645E-03
            3937               1     90.3155E-03     92.7648E-03     52.0073E-03     53.1929E-03
            3938               1     63.0941E-03     66.6436E-03     34.7993E-03     37.2878E-03
            3939               1     73.6678E-03     70.5515E-03     35.3118E-03     39.7116E-03
            3940               1     84.2926E-03     88.4587E-03     48.3433E-03     50.5949E-03
            3941               1     90.1433E-03     91.1756E-03     52.0370E-03     52.0662E-03
            3942               1     94.5125E-03     96.5566E-03     54.5431E-03     55.1774E-03
            3943               1     95.4618E-03     96.6844E-03     55.0979E-03     55.4898E-03
            3944               1     90.8460E-03     92.8413E-03     52.4449E-03     53.2507E-03
            3945               1     88.9439E-03     89.8653E-03     51.2672E-03     51.2689E-03
            3946               1     77.8379E-03     81.5803E-03     40.2507E-03     39.2325E-03
            5375               1     1.98144E-03     1.90029E-03    -734.011E-06    -737.678E-06
            5376               1     1.60435E-03     1.60484E-03    -836.023E-06    -858.399E-06
            5377               1     1.46903E-03     1.47393E-03    -819.659E-06    -827.981E-06
            5378               1     1.47454E-03     1.49143E-03    -849.145E-06    -859.593E-06
            5379               1     1.47454E-03     1.49143E-03    -849.145E-06    -859.593E-06
            5380               1     1.46903E-03     1.47393E-03    -819.659E-06    -827.981E-06
            5381               1     1.60435E-03     1.60484E-03    -836.023E-06    -858.399E-06
            5382               1     1.98144E-03     1.90029E-03    -734.011E-06    -737.678E-06
            5383               1     1.54863E-03     1.56093E-03    -591.551E-06    -583.099E-06
            5384               1     1.65537E-03     1.69092E-03    -858.629E-06    -878.453E-06
            5385               1     1.58649E-03     1.62771E-03    -899.069E-06    -925.024E-06
            5386               1     1.59711E-03     1.63334E-03    -919.378E-06    -940.347E-06
            5387               1     1.59711E-03     1.63334E-03    -919.378E-06    -940.347E-06
            5388               1     1.58649E-03     1.62771E-03    -899.069E-06    -925.024E-06
            5389               1     1.65537E-03     1.69092E-03    -858.629E-06    -878.453E-06
            5390               1     1.54863E-03     1.56093E-03    -591.551E-06    -583.099E-06
            5391               1     1.22733E-03     1.23003E-03    -523.044E-06    -529.491E-06
            5392               1     1.48766E-03     1.49399E-03    -793.972E-06    -792.567E-06
            5393               1     1.66306E-03     1.70377E-03    -942.568E-06    -964.104E-06
            5394               1     1.68557E-03     1.72259E-03    -972.319E-06    -993.731E-06
            5395               1     1.68557E-03     1.72259E-03    -972.319E-06    -993.731E-06
            5396               1     1.66306E-03     1.70377E-03    -942.568E-06    -964.104E-06
            5397               1     1.48766E-03     1.49399E-03    -793.972E-06    -792.567E-06
            5398               1     1.22733E-03     1.23003E-03    -523.044E-06    -529.491E-06
            5399               1     1.08635E-03     1.09415E-03    -544.015E-06    -547.998E-06
            5400               1     1.40271E-03     1.42729E-03    -778.015E-06    -791.209E-06
            5401               1     1.62712E-03     1.63858E-03    -929.599E-06    -934.877E-06
            5402               1     1.73335E-03     1.75934E-03    -999.592E-06    -1.01431E-03
            5403               1     1.73335E-03     1.75934E-03    -999.592E-06    -1.01431E-03
            5404               1     1.62712E-03     1.63858E-03    -929.599E-06    -934.877E-06
            5405               1     1.40271E-03     1.42729E-03    -778.015E-06    -791.209E-06
            5406               1     1.08635E-03     1.09415E-03    -544.015E-06    -547.998E-06
            5407               1     933.970E-06     964.032E-06    -517.777E-06    -536.915E-06
            5408               1     1.39100E-03     1.40377E-03    -793.803E-06    -800.056E-06
            5409               1     1.63362E-03     1.64501E-03    -938.157E-06    -944.259E-06
            5410               1     1.69159E-03     1.69714E-03    -975.320E-06    -978.429E-06
            5411               1     1.69159E-03     1.69714E-03    -975.320E-06    -978.429E-06
            5412               1     1.63362E-03     1.64501E-03    -938.157E-06    -944.259E-06
            5413               1     1.39100E-03     1.40377E-03    -793.803E-06    -800.056E-06
            5414               1     933.970E-06     964.032E-06    -517.777E-06    -536.915E-06
            5415               1     977.953E-06     1.01532E-03    -562.226E-06    -584.260E-06
            5416               1     1.44647E-03     1.45609E-03    -832.602E-06    -838.524E-06
            5417               1     1.57544E-03     1.57593E-03    -903.746E-06    -903.789E-06
            5418               1     1.62308E-03     1.61967E-03    -936.840E-06    -934.827E-06
            5419               1     1.62308E-03     1.61967E-03    -936.840E-06    -934.827E-06
            5420               1     1.57544E-03     1.57593E-03    -903.746E-06    -903.789E-06
            5421               1     1.44647E-03     1.45609E-03    -832.602E-06    -838.524E-06
            5422               1     977.953E-06     1.01532E-03    -562.226E-06    -584.260E-06
            5423               1     1.15698E-03     1.17003E-03    -613.081E-06    -624.962E-06
            5424               1     1.41265E-03     1.41868E-03    -813.986E-06    -817.945E-06
            5425               1     1.48399E-03     1.48003E-03    -856.034E-06    -853.773E-06
            5426               1     1.56885E-03     1.56601E-03    -905.385E-06    -903.828E-06
            5427               1     1.56885E-03     1.56601E-03    -905.385E-06    -903.828E-06
            5428               1     1.48399E-03     1.48003E-03    -856.034E-06    -853.773E-06
            5429               1     1.41265E-03     1.41868E-03    -813.986E-06    -817.945E-06
            5430               1     1.15698E-03     1.17003E-03    -613.081E-06    -624.962E-06
            6229               1     113.324E-03     102.326E-03    -22.2738E-03    -22.3539E-03
            6230               1     77.1576E-03     69.7983E-03    -17.5313E-03    -19.3594E-03
            6231               1     54.5171E-03     49.6052E-03    -12.5321E-03    -13.2454E-03
            6232               1     35.1023E-03     32.9571E-03    -11.1419E-03    -12.1207E-03
            6233               1     20.3985E-03     20.7145E-03    -10.0301E-03    -10.7284E-03
            6234               1     19.4636E-03     20.3604E-03    -9.83504E-03    -10.5012E-03
            6235               1     35.8945E-03     34.9318E-03    -11.9770E-03    -12.6525E-03
            6236               1     63.7917E-03     61.5026E-03    -14.6326E-03    -13.5548E-03
            6237               1     101.864E-03     103.631E-03    -12.6120E-03    -10.4369E-03
            6238               1     82.4028E-03     83.1547E-03    -16.9075E-03    -18.2306E-03
            6239               1     57.0063E-03     56.5493E-03    -15.2744E-03    -17.4382E-03
            6240               1     40.1690E-03     40.5622E-03    -14.2028E-03    -15.8610E-03
            6241               1     25.6326E-03     27.8399E-03    -13.4894E-03    -15.2677E-03
            6242               1     24.3809E-03     27.0468E-03    -13.2549E-03    -14.6626E-03
            6243               1     40.4205E-03     42.5000E-03    -13.6595E-03    -14.1003E-03
            6244               1     58.9276E-03     59.0153E-03    -9.76455E-03    -8.39418E-03
            6245               1     96.0407E-03     93.7401E-03    -9.12530E-03    -8.02524E-03
            6246               1     77.3565E-03     78.3119E-03    -13.4167E-03    -12.3454E-03
            6247               1     60.3305E-03     62.0829E-03    -16.0702E-03    -17.4365E-03
            6248               1     41.2620E-03     42.6498E-03    -15.6215E-03    -17.4454E-03
            6249               1     29.4493E-03     31.5521E-03    -15.3692E-03    -16.9689E-03
            6250               1     27.3563E-03     30.1139E-03    -14.7806E-03    -16.0733E-03
            6251               1     36.9749E-03     37.8855E-03    -12.2148E-03    -12.0677E-03
            6252               1     53.1836E-03     53.3217E-03    -8.50987E-03    -8.02735E-03
            6253               1     91.4563E-03     90.6966E-03    -9.28003E-03    -8.44574E-03
            6254               1     74.6489E-03     73.9930E-03    -12.6964E-03    -12.3953E-03
            6255               1     57.7900E-03     58.3970E-03    -14.9970E-03    -15.0382E-03
            6256               1     43.3320E-03     44.7130E-03    -16.4385E-03    -17.5368E-03
            6257               1     30.3086E-03     31.7983E-03    -16.0237E-03    -17.2294E-03
            6258               1     26.5209E-03     27.8561E-03    -14.6759E-03    -15.3563E-03
            6259               1     34.7022E-03     35.7576E-03    -12.3086E-03    -12.6675E-03
            6260               1     49.9609E-03     49.5649E-03    -9.15849E-03    -8.86282E-03
            6261               1     87.5765E-03     85.8187E-03    -8.20954E-03    -7.91324E-03
            6262               1     71.4884E-03     71.3098E-03    -12.4623E-03    -12.1006E-03
            6263               1     56.5913E-03     56.6129E-03    -15.0240E-03    -15.0542E-03
            6264               1     42.2490E-03     42.4755E-03    -16.0657E-03    -16.2900E-03
            6265               1     31.1198E-03     31.6548E-03    -16.2258E-03    -16.6916E-03
            6266               1     26.1457E-03     27.3010E-03    -14.7267E-03    -15.3078E-03
            6267               1     32.8105E-03     33.3668E-03    -12.4881E-03    -12.8300E-03
            6268               1     46.1020E-03     46.0373E-03    -8.71253E-03    -8.88442E-03
            6269               1     82.7695E-03     81.8901E-03    -8.40481E-03    -8.35540E-03
            6270               1     68.4630E-03     67.9961E-03    -12.0498E-03    -11.9625E-03
            6271               1     54.6436E-03     54.6567E-03    -14.7213E-03    -14.3645E-03
            6272               1     41.8275E-03     41.4865E-03    -16.1546E-03    -15.8675E-03
            6273               1     30.9351E-03     30.4773E-03    -15.9304E-03    -15.7953E-03
            6274               1     26.2772E-03     26.4826E-03    -14.9471E-03    -15.0531E-03
            6275               1     30.2234E-03     31.3504E-03    -12.2685E-03    -12.7389E-03
            6276               1     42.6380E-03     42.3095E-03    -8.93202E-03    -9.44089E-03
            6277               1     78.5507E-03     77.5552E-03    -7.66023E-03    -8.17018E-03
            6278               1     65.1412E-03     65.3791E-03    -11.9833E-03    -11.9594E-03
            6279               1     52.7593E-03     52.9121E-03    -14.5739E-03    -14.1548E-03
            6280               1     40.7643E-03     40.0367E-03    -15.6251E-03    -14.6234E-03
            6281               1     31.0050E-03     29.2692E-03    -16.0894E-03    -15.1248E-03
            6282               1     25.8693E-03     25.6632E-03    -14.8425E-03    -14.6834E-03
            6283               1     29.1456E-03     29.7240E-03    -12.6265E-03    -12.9941E-03
            6284               1     38.5704E-03     39.4823E-03    -8.77444E-03    -9.56509E-03
            6285               1     73.0232E-03     73.0293E-03    -7.63946E-03    -8.48265E-03
            6286               1     62.2099E-03     63.3176E-03    -11.6670E-03    -12.1499E-03
            6287               1     50.8231E-03     51.2011E-03    -13.8088E-03    -12.7363E-03
            6288               1     38.9861E-03     37.7326E-03    -15.2606E-03    -13.8328E-03
            6289               1     30.3923E-03     28.0070E-03    -15.7961E-03    -14.1637E-03
            6290               1     27.1491E-03     24.9709E-03    -15.5614E-03    -14.2501E-03
            6291               1     27.5059E-03     29.4779E-03    -12.9836E-03    -13.5796E-03
            6292               1     35.4754E-03     35.3244E-03    -8.75474E-03    -10.2366E-03
            6293               1     68.5856E-03     69.2349E-03    -5.90462E-03    -7.76060E-03
            6294               1     58.6696E-03     59.8688E-03    -9.88546E-03    -9.60973E-03
            6295               1     47.0796E-03     46.3672E-03    -12.9848E-03    -11.7141E-03
            6296               1     37.7640E-03     36.4193E-03    -15.2090E-03    -13.5580E-03
            6297               1     30.0314E-03     28.0381E-03    -15.9001E-03    -14.3596E-03
            6298               1     27.5885E-03     24.3910E-03    -15.8103E-03    -13.9937E-03
            6299               1     29.4323E-03     27.3958E-03    -14.4960E-03    -13.1343E-03
            6300               1     29.4371E-03     33.8590E-03    -8.92371E-03    -10.9647E-03
            6301               1     59.4101E-03     57.0489E-03     91.6535E-06    -1.23209E-03
            6302               1     51.7825E-03     48.4666E-03    -8.45959E-03    -7.86038E-03
            6303               1     44.5625E-03     42.7094E-03    -13.6399E-03    -12.9810E-03
            6304               1     36.8298E-03     36.1679E-03    -15.9218E-03    -15.2671E-03
            6305               1     31.8678E-03     31.3872E-03    -17.3035E-03    -16.4201E-03
            6306               1     28.8268E-03     27.6346E-03    -16.5607E-03    -15.9014E-03
            6307               1     30.1987E-03     25.3678E-03    -15.0537E-03    -13.7864E-03
            6308               1     27.3839E-03     19.7312E-03    -9.15677E-03    -8.48119E-03
            6309               1     79.3132E-03     71.1519E-03    -16.8345E-03    -17.1292E-03
            6310               1     54.0583E-03     48.9658E-03    -14.3027E-03    -15.6520E-03
            6311               1     38.8970E-03     35.3955E-03    -11.1510E-03    -11.6029E-03
            6312               1     26.7790E-03     25.3213E-03    -10.3586E-03    -11.0239E-03
            6313               1     18.3763E-03     18.3718E-03    -9.66238E-03    -10.0559E-03
            6314               1     17.2733E-03     18.1755E-03    -9.39024E-03    -9.80273E-03
            6315               1     26.6898E-03     26.8565E-03    -10.7732E-03    -11.0505E-03
            6316               1     45.0200E-03     44.7276E-03    -12.0082E-03    -11.0047E-03
            6317               1     69.4383E-03     70.8030E-03    -10.2546E-03    -8.81060E-03
            6318               1     57.1746E-03     57.5941E-03    -13.9623E-03    -14.9626E-03
            6319               1     40.6282E-03     40.3526E-03    -13.1059E-03    -14.6026E-03
            6320               1     30.5230E-03     30.6763E-03    -12.5681E-03    -13.5903E-03
            6321               1     22.1902E-03     23.6024E-03    -12.0888E-03    -13.2294E-03
            6322               1     21.1728E-03     22.7814E-03    -11.8940E-03    -12.6695E-03
            6323               1     30.1050E-03     31.4346E-03    -12.0241E-03    -12.1082E-03
            6324               1     41.0670E-03     40.6353E-03    -8.38493E-03    -7.64231E-03
            6325               1     64.5573E-03     62.7230E-03    -7.80162E-03    -7.03584E-03
            6326               1     52.8813E-03     53.3884E-03    -11.5436E-03    -10.7520E-03
            6327               1     42.8218E-03     43.9360E-03    -13.7995E-03    -14.6847E-03
            6328               1     31.4199E-03     32.4061E-03    -13.6250E-03    -14.8171E-03
            6329               1     24.9671E-03     26.2433E-03    -13.5041E-03    -14.4752E-03
            6330               1     23.3345E-03     25.0099E-03    -13.0170E-03    -13.8011E-03
            6331               1     27.2821E-03     27.7617E-03    -10.7615E-03    -10.7588E-03
            6332               1     35.8311E-03     36.2996E-03    -7.47464E-03    -7.32993E-03
            6333               1     60.3973E-03     59.9433E-03    -7.90152E-03    -7.30176E-03
            6334               1     50.5308E-03     49.9014E-03    -11.0245E-03    -10.7494E-03
            6335               1     40.7628E-03     41.0427E-03    -13.0781E-03    -13.0150E-03
            6336               1     32.8880E-03     33.7834E-03    -14.2923E-03    -14.9728E-03
            6337               1     25.6930E-03     26.7102E-03    -14.0240E-03    -14.8002E-03
            6338               1     22.7175E-03     23.6636E-03    -12.8553E-03    -13.3682E-03
            6339               1     25.4538E-03     26.3429E-03    -10.8086E-03    -11.1487E-03
            6340               1     33.2946E-03     32.9745E-03    -7.98594E-03    -7.88182E-03
            6341               1     56.9891E-03     55.6960E-03    -7.17699E-03    -6.90887E-03
            6342               1     47.7723E-03     47.6163E-03    -10.8487E-03    -10.5156E-03
            6343               1     39.7571E-03     39.6259E-03    -13.1173E-03    -13.0515E-03
            6344               1     32.1073E-03     32.2254E-03    -14.0683E-03    -14.1753E-03
            6345               1     26.2033E-03     26.6458E-03    -14.1644E-03    -14.4980E-03
            6346               1     22.5445E-03     23.4244E-03    -12.9072E-03    -13.3776E-03
            6347               1     24.1081E-03     24.6066E-03    -10.9066E-03    -11.2529E-03
            6348               1     29.9823E-03     30.1679E-03    -7.68402E-03    -7.89910E-03
            6349               1     52.7713E-03     52.3091E-03    -7.29879E-03    -7.18345E-03
            6350               1     45.2385E-03     44.7827E-03    -10.5864E-03    -10.4282E-03
            6351               1     38.1588E-03     38.0647E-03    -12.9172E-03    -12.6108E-03
            6352               1     31.7951E-03     31.5024E-03    -14.1317E-03    -13.9203E-03
            6353               1     26.0891E-03     25.8802E-03    -13.9716E-03    -13.9271E-03
            6354               1     22.6981E-03     22.9788E-03    -13.0558E-03    -13.2269E-03
            6355               1     22.2839E-03     23.2270E-03    -10.7730E-03    -11.1968E-03
            6356               1     27.2030E-03     27.1178E-03    -7.82196E-03    -8.24988E-03
            6357               1     49.2086E-03     48.4749E-03    -6.86218E-03    -7.10943E-03
            6358               1     42.4499E-03     42.6405E-03    -10.5572E-03    -10.4610E-03
            6359               1     36.6963E-03     36.6006E-03    -12.8012E-03    -12.4575E-03
            6360               1     30.9239E-03     30.3470E-03    -13.7651E-03    -13.1320E-03
            6361               1     26.1984E-03     25.1727E-03    -14.0830E-03    -13.4986E-03
            6362               1     22.4985E-03     22.4423E-03    -12.9715E-03    -12.9510E-03
            6363               1     21.6769E-03     22.1759E-03    -11.0285E-03    -11.3686E-03
            6364               1     24.0229E-03     24.8952E-03    -7.77043E-03    -8.34137E-03
            6365               1     44.4637E-03     44.7999E-03    -6.83616E-03    -7.28684E-03
            6366               1     40.1174E-03     40.6493E-03    -10.3970E-03    -10.5950E-03
            6367               1     35.0778E-03     35.2076E-03    -12.3219E-03    -11.6832E-03
            6368               1     29.6254E-03     28.8683E-03    -13.3831E-03    -12.5385E-03
            6369               1     25.5808E-03     24.0572E-03    -13.7873E-03    -12.7348E-03
            6370               1     23.5479E-03     22.0821E-03    -13.5674E-03    -12.7176E-03
            6371               1     20.8782E-03     22.0797E-03    -11.2939E-03    -11.7401E-03
            6372               1     21.5982E-03     21.8284E-03    -7.66299E-03    -8.74885E-03
            6373               1     40.7055E-03     40.8620E-03    -5.93571E-03    -7.02852E-03
            6374               1     37.0947E-03     38.1249E-03    -9.40609E-03    -9.40929E-03
            6375               1     32.4306E-03     32.3180E-03    -11.5742E-03    -10.9158E-03
            6376               1     28.4997E-03     27.6864E-03    -13.1698E-03    -12.1199E-03
            6377               1     25.0500E-03     23.9445E-03    -13.6268E-03    -12.6890E-03
            6378               1     23.5900E-03     21.5136E-03    -13.5922E-03    -12.3529E-03
            6379               1     23.0246E-03     21.2169E-03    -12.7069E-03    -11.6580E-03
            6380               1     17.6703E-03     20.9369E-03    -7.97703E-03    -9.35811E-03
            6381               1     32.2045E-03     32.5952E-03    -2.48728E-03    -3.57780E-03
            6382               1     32.4613E-03     31.5300E-03    -8.37616E-03    -8.19556E-03
            6383               1     30.5071E-03     29.9436E-03    -11.7311E-03    -11.3227E-03
            6384               1     27.6529E-03     27.6562E-03    -13.3014E-03    -12.9428E-03
            6385               1     25.7989E-03     25.5780E-03    -14.2675E-03    -13.6716E-03
            6386               1     23.7813E-03     23.3079E-03    -13.7156E-03    -13.2990E-03
            6387               1     23.5741E-03     21.0067E-03    -12.9455E-03    -12.0161E-03
            6388               1     17.8855E-03     14.3601E-03    -8.92076E-03    -8.15218E-03
            6389               1     48.4657E-03     42.9745E-03    -11.6982E-03    -12.1834E-03
            6390               1     33.2691E-03     30.3760E-03    -11.0999E-03    -12.0254E-03
            6391               1     24.9671E-03     22.9042E-03    -9.61474E-03    -9.84216E-03
            6392               1     19.4254E-03     18.7392E-03    -9.39667E-03    -9.77694E-03
            6393               1     16.2825E-03     16.1519E-03    -9.14068E-03    -9.25791E-03
            6394               1     15.8358E-03     16.5284E-03    -8.87713E-03    -9.04787E-03
            6395               1     20.2516E-03     20.9528E-03    -9.72276E-03    -9.63907E-03
            6396               1     30.0199E-03     31.3153E-03    -9.82431E-03    -8.87878E-03
            6397               1     40.3416E-03     41.3520E-03    -7.94814E-03    -7.18212E-03
            6398               1     34.5651E-03     34.8067E-03    -11.0320E-03    -11.7661E-03
            6399               1     26.1018E-03     26.0893E-03    -10.9029E-03    -11.8099E-03
            6400               1     21.9155E-03     21.9019E-03    -10.8595E-03    -11.3240E-03
            6401               1     18.7717E-03     19.5013E-03    -10.6628E-03    -11.2078E-03
            6402               1     18.6086E-03     19.2008E-03    -10.5796E-03    -10.7682E-03
            6403               1     22.6489E-03     23.1336E-03    -10.5397E-03    -10.2786E-03
            6404               1     26.9427E-03     26.1779E-03    -7.16504E-03    -6.98137E-03
            6405               1     36.4456E-03     35.0795E-03    -6.44365E-03    -6.00394E-03
            6406               1     31.1705E-03     31.2635E-03    -9.63753E-03    -9.12961E-03
            6407               1     27.3283E-03     27.9312E-03    -11.4769E-03    -11.9668E-03
            6408               1     22.6822E-03     23.2821E-03    -11.6197E-03    -12.2375E-03
            6409               1     20.5664E-03     21.1275E-03    -11.6364E-03    -12.0490E-03
            6410               1     20.0626E-03     20.7410E-03    -11.3217E-03    -11.6103E-03
            6411               1     20.3582E-03     20.5187E-03    -9.40249E-03    -9.48410E-03
            6412               1     22.3330E-03     23.1522E-03    -6.53379E-03    -6.70673E-03
            6413               1     32.8766E-03     32.6489E-03    -6.50649E-03    -6.17990E-03
            6414               1     29.2260E-03     28.7010E-03    -9.27301E-03    -9.06149E-03
            6415               1     25.9281E-03     25.8636E-03    -11.1314E-03    -10.9926E-03
            6416               1     23.5639E-03     24.0809E-03    -12.0841E-03    -12.4429E-03
            6417               1     21.1897E-03     21.7393E-03    -12.0516E-03    -12.4188E-03
            6418               1     19.4544E-03     20.0692E-03    -11.0808E-03    -11.4298E-03
            6419               1     19.0383E-03     19.6580E-03    -9.38653E-03    -9.67432E-03
            6420               1     20.7079E-03     20.4849E-03    -7.00513E-03    -6.99443E-03
            6421               1     29.9488E-03     29.1483E-03    -6.10869E-03    -5.86870E-03
            6422               1     27.1722E-03     26.8791E-03    -9.20458E-03    -8.93364E-03
            6423               1     25.1067E-03     24.9320E-03    -11.0947E-03    -11.0136E-03
            6424               1     23.2448E-03     23.2389E-03    -12.0756E-03    -12.0879E-03
            6425               1     21.3117E-03     21.7859E-03    -12.0583E-03    -12.3512E-03
            6426               1     19.3723E-03     19.9755E-03    -11.1277E-03    -11.4662E-03
            6427               1     18.2497E-03     18.6666E-03    -9.47281E-03    -9.75054E-03
            6428               1     18.1524E-03     18.4728E-03    -6.76596E-03    -7.03464E-03
            6429               1     26.7325E-03     26.3768E-03    -6.16357E-03    -6.05742E-03
            6430               1     25.1005E-03     24.6845E-03    -9.01883E-03    -8.79837E-03
            6431               1     24.2723E-03     23.8982E-03    -11.1227E-03    -10.8835E-03
            6432               1     22.9297E-03     22.9059E-03    -12.0048E-03    -12.0068E-03
            6433               1     21.3787E-03     21.4540E-03    -12.0526E-03    -12.1164E-03
            6434               1     19.3466E-03     19.8885E-03    -11.1591E-03    -11.4736E-03
            6435               1     17.1580E-03     17.7397E-03    -9.30817E-03    -9.65739E-03
            6436               1     16.4247E-03     16.5379E-03    -7.02433E-03    -7.14504E-03
            6437               1     23.7158E-03     23.3763E-03    -6.08289E-03    -5.94092E-03
            6438               1     23.4653E-03     23.0990E-03    -9.12005E-03    -8.93583E-03
            6439               1     23.1360E-03     22.8431E-03    -10.9728E-03    -10.7512E-03
            6440               1     22.8007E-03     22.4061E-03    -12.0377E-03    -11.8098E-03
            6441               1     21.3592E-03     21.3479E-03    -11.9998E-03    -12.0167E-03
            6442               1     19.2383E-03     19.4900E-03    -11.0986E-03    -11.2490E-03
            6443               1     16.8005E-03     17.3749E-03    -9.45670E-03    -9.76294E-03
            6444               1     14.4747E-03     14.8139E-03    -6.76514E-03    -7.16097E-03
            6445               1     20.8807E-03     20.5683E-03    -6.05453E-03    -6.11840E-03
            6446               1     21.5130E-03     21.4859E-03    -9.01359E-03    -8.88286E-03
            6447               1     22.5093E-03     22.1192E-03    -11.0029E-03    -10.7113E-03
            6448               1     22.1693E-03     21.7940E-03    -11.8377E-03    -11.5501E-03
            6449               1     21.4166E-03     20.9016E-03    -12.0035E-03    -11.7026E-03
            6450               1     19.4128E-03     19.4879E-03    -11.1581E-03    -11.2247E-03
            6451               1     16.3968E-03     16.8605E-03    -9.39106E-03    -9.67620E-03
            6452               1     13.1979E-03     13.8023E-03    -6.93289E-03    -7.25067E-03
            6453               1     17.4683E-03     17.9285E-03    -5.98111E-03    -6.06684E-03
            6454               1     20.3268E-03     20.2365E-03    -9.12245E-03    -9.05618E-03
            6455               1     21.4357E-03     21.3823E-03    -10.7679E-03    -10.5508E-03
            6456               1     21.4030E-03     21.0999E-03    -11.4691E-03    -11.1380E-03
            6457               1     20.8854E-03     20.1149E-03    -11.7730E-03    -11.2352E-03
            6458               1     20.0540E-03     19.2701E-03    -11.5013E-03    -11.0328E-03
            6459               1     16.7779E-03     17.2256E-03    -9.66800E-03    -9.94275E-03
            6460               1     11.8701E-03     12.8272E-03    -6.57170E-03    -7.30788E-03
            6461               1     15.1154E-03     15.0124E-03    -5.96594E-03    -6.33384E-03
            6462               1     18.6627E-03     19.5155E-03    -8.89687E-03    -9.16772E-03
            6463               1     20.0042E-03     20.3907E-03    -10.1653E-03    -10.0802E-03
            6464               1     20.3822E-03     20.0026E-03    -11.1121E-03    -10.6232E-03
            6465               1     20.0672E-03     19.6922E-03    -11.3120E-03    -10.9051E-03
            6466               1     19.7899E-03     18.6931E-03    -11.3849E-03    -10.6414E-03
            6467               1     18.7987E-03     17.5983E-03    -10.8237E-03    -10.0432E-03
            6468               1     12.4759E-03     13.5297E-03    -7.02454E-03    -7.79952E-03
            6469               1     9.95285E-03     12.4038E-03    -5.05794E-03    -5.89615E-03
            6470               1     16.7242E-03     17.6930E-03    -8.32664E-03    -8.54544E-03
            6471               1     18.6145E-03     18.8549E-03    -9.82266E-03    -9.65790E-03
            6472               1     19.4110E-03     19.7771E-03    -10.6843E-03    -10.5960E-03
            6473               1     19.7697E-03     19.6906E-03    -11.2374E-03    -10.8999E-03
            6474               1     18.8039E-03     18.8933E-03    -10.8119E-03    -10.6073E-03
            6475               1     18.7021E-03     18.0632E-03    -10.7934E-03    -10.1522E-03
            6476               1     15.0089E-03     15.9322E-03    -8.48001E-03    -7.62675E-03
            6477               1     18.0877E-03     15.5930E-03    -6.93577E-03    -7.51451E-03
            6478               1     16.0741E-03     15.4198E-03    -8.47886E-03    -8.78642E-03
            6479               1     15.6406E-03     14.6505E-03    -8.57992E-03    -8.42738E-03
            6480               1     15.4126E-03     15.1621E-03    -8.65437E-03    -8.75243E-03
            6481               1     15.2993E-03     14.9351E-03    -8.68285E-03    -8.60559E-03
            6482               1     14.3371E-03     14.7609E-03    -8.23834E-03    -8.42535E-03
            6483               1     14.3013E-03     14.7102E-03    -8.25545E-03    -8.20618E-03
            6484               1     13.7284E-03     15.2204E-03    -7.04874E-03    -6.30794E-03
            6485               1     12.8479E-03     12.7774E-03    -6.33684E-03    -5.54272E-03
            6486               1     16.4893E-03     16.0349E-03    -8.92986E-03    -8.87942E-03
            6487               1     16.0358E-03     16.1260E-03    -9.04352E-03    -9.24379E-03
            6488               1     15.7817E-03     15.5493E-03    -8.97160E-03    -8.92781E-03
            6489               1     15.4468E-03     15.5295E-03    -8.89396E-03    -8.96587E-03
            6490               1     15.8449E-03     15.6753E-03    -9.13551E-03    -9.04167E-03
            6491               1     15.0722E-03     15.5613E-03    -8.66645E-03    -8.80044E-03
            6492               1     10.8774E-03     11.4885E-03    -5.37619E-03    -6.21219E-03
            6493               1     11.2342E-03     9.62832E-03    -5.98249E-03    -5.31962E-03
            6494               1     15.2387E-03     15.1764E-03    -8.55441E-03    -8.31858E-03
            6495               1     15.9955E-03     16.5845E-03    -9.08196E-03    -9.21952E-03
            6496               1     15.7493E-03     15.7803E-03    -9.06594E-03    -9.01577E-03
            6497               1     15.6570E-03     15.8444E-03    -9.03569E-03    -9.10320E-03
            6498               1     16.1503E-03     15.8477E-03    -9.27452E-03    -9.14432E-03
            6499               1     15.0980E-03     15.0547E-03    -8.64775E-03    -8.64913E-03
            6500               1     9.21335E-03     10.9383E-03    -5.31642E-03    -6.23347E-03
            6501               1     10.0411E-03     10.8240E-03    -5.54979E-03    -6.18313E-03
            6502               1     13.9518E-03     14.9316E-03    -7.98103E-03    -8.12556E-03
            6503               1     15.1301E-03     15.3973E-03    -8.71063E-03    -8.48778E-03
            6504               1     15.7771E-03     16.3975E-03    -9.10819E-03    -9.19890E-03
            6505               1     16.0464E-03     16.0525E-03    -9.23594E-03    -9.15762E-03
            6506               1     15.2376E-03     15.4330E-03    -8.71748E-03    -8.85885E-03
            6507               1     14.9074E-03     14.4895E-03    -8.47550E-03    -8.31477E-03
            6508               1     11.6281E-03     11.8185E-03    -6.68866E-03    -5.96531E-03